VonMises,EquivStrain,GreenLagrangeStrain:0,GreenLagrangeStrain:1,GreenLagrangeStrain:2,GreenLagrangeStrain:3,GreenLagrangeStrain:4,GreenLagrangeStrain:5,GreenLagrangeStrain:6,GreenLagrangeStrain:7,GreenLagrangeStrain:8,CauchyStress:0,CauchyStress:1,CauchyStress:2,CauchyStress:3,CauchyStress:4,CauchyStress:5,CauchyStress:6,CauchyStress:7,CauchyStress:8,Cell Type,Point Index 0,Point Index 1,Point Index 2,Point Index 3,vtkOriginalIndices
43.5565,0.000223281,0,0,7.73993e-05,0,0,0.000115454,7.73993e-05,0.000115454,0.000232834,1498.85,0.00232426,10.0681,0.00232426,1498.85,15.0182,10.0681,15.0182,1529.12,10,81,82,131,157,0
4077.21,0.0208755,0.0158176,0.00754039,0.00406034,0.00754039,-0.0155292,-0.00279545,0.00406034,-0.00279545,-0.00012774,-1108.07,907.358,515.448,907.358,-5258.07,-382.005,515.448,-382.005,-3227.92,10,37,38,40,122,1
258.619,0.00132593,0,0,0.000446693,0,0,0.00104187,0.000446693,0.00104187,0.000317156,2025.23,0.121033,58.1028,0.121033,2025.46,135.519,58.1028,135.519,2066.08,10,82,131,135,137,2
323.943,0.00165832,-0.00116243,-0.000695925,-0.000860752,-0.000695925,0.000522285,0.000287155,-0.000860752,0.000287155,4.84837e-05,-3989.57,-90.3401,-111.937,-90.3401,-3769.61,37.6087,-111.937,37.6087,-3831.27,10,81,82,93,157,3
334.396,0.00170946,-0.000260389,-0.000767738,-0.000310576,-0.000767738,-0.00109611,0.00109829,-0.000310576,0.00109829,-6.59896e-05,-9227.54,-99.9011,-40.4426,-99.9011,-9336.35,143.435,-40.4426,143.435,-9202.11,10,82,93,107,157,4
426.255,0.00218243,-8.20124e-05,-0.0017577,0.000114689,-0.0017577,-0.000273866,0.000678035,0.000114689,0.000678035,-0.000133402,-3208.94,-228.823,15.1749,-228.823,-3232.88,88.433,15.1749,88.433,-3215.32,10,132,137,157,158,5
4041.93,0.020712,0.016861,-0.00516274,-0.00230433,-0.00516274,-0.0169114,-0.00211154,-0.00230433,-0.00211154,0.000700062,2228.36,-582.161,-285.991,-582.161,-2216.6,-288.071,-285.991,-288.071,94.552,10,51,95,96,99,6
4443.24,0.0224385,0.00145043,-0.0176817,0.000596247,-0.0176817,-0.0104318,0.00438245,0.000596247,0.00438245,0.00101826,-56128.3,-2303.16,56.8933,-2303.16,-57873.7,575.553,56.8933,575.553,-56265.8,10,34,53,94,98,7
3686.71,0.0188505,0.0127877,-0.00791004,-0.00339179,-0.00791004,-0.0147589,-0.00106652,-0.00339179,-0.00106652,0.00119941,-6738.24,-973.147,-437.735,-973.147,-10394.7,-152.671,-437.735,-152.671,-8285.98,10,51,53,95,99,8
5635.11,0.0288735,0.00988071,-0.0205872,-0.00798307,-0.0205872,-0.0119711,0.0034708,-0.00798307,0.0034708,0.00329286,1062.88,-2604.19,-1062.33,-2604.19,-2044.09,397.687,-1062.33,397.687,65.3565,10,35,53,54,98,9
7822.99,0.0401857,0.0235171,-0.0256476,-0.0036914,-0.0256476,-0.0227749,0.00118589,-0.0036914,0.00118589,0.00316114,12711.7,-3078.75,-481.723,-3078.75,6188.74,98.1706,-481.723,98.1706,9805.04,10,54,98,99,101,10
5544.43,0.0282878,0.00835053,0.0205184,0.00628103,0.0205184,-0.0133424,0.00311322,0.00628103,0.00311322,0.0035929,-15624.5,2609.8,842.275,2609.8,-18712.8,364.145,842.275,364.145,-16376,10,35,40,123,125,11
4294.7,0.0219208,0.0097568,0.0148174,0.00227545,0.0148174,-0.0126531,0.00276679,0.00227545,0.00276679,0.00126404,-13852.7,1866.42,311.521,1866.42,-16958.6,336.973,311.521,336.973,-15048.9,10,39,119,122,123,12
4897.59,0.025087,0.0124553,0.0160252,0.00611904,0.0160252,-0.013809,0.00167285,0.00611904,0.00167285,0.00207016,227.097,1993.62,805.688,1993.62,-3408.36,167.859,805.688,167.859,-1246.28,10,39,40,122,123,13
4008.38,0.0205475,0.0168545,0.00518984,0.0018882,0.00518984,-0.0165986,-0.00251012,0.0018882,-0.00251012,0.000600264,3622.2,586.86,230.233,586.86,-779.294,-337.542,230.233,-337.542,1478.04,10,37,118,119,122,14
4026.18,0.0206347,0.0155376,0.00734821,0.00186436,0.00734821,-0.0158537,-0.00387602,0.00186436,-0.00387602,0.00106077,2696.68,881.324,226.115,881.324,-1449.72,-519.444,226.115,-519.444,773.888,10,37,118,121,122,15
1117.55,0.00571434,0.00128685,0.00178661,0.0026497,0.00178661,-0.00472204,-0.000371912,0.0026497,-0.000371912,0.00219866,-8114.75,228.557,346.223,228.557,-8901.53,-53.4535,346.223,-53.4535,-7998.49,10,80,117,126,127,16
1935,0.00993741,0.00814978,0.000781927,0.00063988,0.000781927,-0.00871788,0.000320372,0.00063988,0.000320372,0.00204694,9617.2,85.1953,82.6444,85.1953,7424.45,37.7663,82.6444,37.7663,8823.39,10,31,118,127,128,17
2188.98,0.0112139,0.00815654,0.00319774,-0.00106958,0.00319774,-0.0096738,-0.00129958,-0.00106958,-0.00129958,0.00154924,46.2945,397.285,-143.248,397.285,-2285.55,-170.872,-143.248,-170.872,-818.26,10,30,117,118,127,18
2093.24,0.010677,0.00371587,0.00559804,-0.00113384,0.00559804,-0.00923754,-0.000353156,-0.00113384,-0.000353156,0.00293184,-17312,716.449,-147.218,716.449,-19032,-45.6315,-147.218,-45.6315,-17429.2,10,31,32,119,128,19
1971.39,0.0100848,0.00502191,0.00404969,-0.0017801,0.00404969,-0.0089038,-0.000180507,-0.0017801,-0.000180507,0.00301708,-5899.54,508.913,-230.951,508.913,-7736.96,-22.5609,-230.951,-22.5609,-6173.46,10,31,118,119,128,20
2068.33,0.0106108,0.00597418,0.00352614,-0.00255383,0.00352614,-0.00883587,0.00134269,-0.00255383,0.00134269,0.00372165,5221.79,444.859,-328.626,444.859,3281.72,172.556,-328.626,172.556,4921.13,10,32,119,128,129,21
1207.45,0.00618727,0.00301132,0.00201236,0.00116283,0.00201236,-0.00553905,0.000303726,0.00116283,0.000303726,0.00258601,395.976,255.698,152.315,255.698,-721.596,35.7455,152.315,35.7455,338.815,10,77,80,126,127,22
2573.65,0.0131703,0.00907479,0.00422965,0.00419155,0.00422965,-0.00957909,-0.00276174,0.00419155,-0.00276174,-4.14628e-05,-4003.54,517.243,537.496,517.243,-6462.49,-373.837,537.496,-373.837,-5218.01,10,31,37,118,119,23
2019.1,0.0103264,0.00520271,-0.00419581,0.00174911,-0.00419581,-0.00912697,7.71413e-05,0.00174911,7.71413e-05,0.00292806,-6770.59,-527.136,226.41,-527.136,-8662.39,10.7286,226.41,10.7286,-7080.22,10,45,95,96,104,24
1984.13,0.0101895,0.00833011,-0.000939907,-0.000691106,-0.000939907,-0.00892095,0.000506789,-0.000691106,0.000506789,0.00206117,9536.81,-104.856,-89.568,-104.856,7293.4,61.6194,-89.568,61.6194,8721.18,10,45,96,104,105,25
1425.91,0.00730572,0.0048899,0.000427079,0.00010758,0.000427079,-0.00703624,-0.000908545,0.00010758,-0.000908545,0.00214518,106.713,67.6446,15.4206,67.6446,-1442.53,-121.18,15.4206,-121.18,-250.043,10,105,106,137,138,26
1839.53,0.00939915,0.00187558,-0.00353327,0.00230279,-0.00353327,0.000802815,0.00613989,0.00230279,0.00613989,-0.00426935,-10869.4,-457.829,298.221,-457.829,-11009.4,801.738,298.221,801.738,-11677.8,10,73,85,103,139,27
4052.25,0.0207594,0.0155226,-0.00735566,-0.00231826,-0.00735566,-0.0161532,-0.00349347,-0.00231826,-0.00349347,0.00112443,1030.5,-881.634,-286.854,-881.634,-3155.44,-472.149,-286.854,-472.149,-884.402,10,51,96,99,100,28
5265.04,0.0269496,0.0120943,-0.0178469,-0.00685841,-0.0178469,-0.0140732,0.00203291,-0.00685841,0.00203291,0.00240647,-2602.89,-2224.29,-907.163,-2224.29,-6272.22,206.9,-907.163,206.9,-4009.8,10,53,54,98,99,29
2134.47,0.0108837,0.00383219,-0.00574101,0.00106622,-0.00574101,-0.00944996,-9.59926e-05,0.00106622,-9.59926e-05,0.00283876,-18560.7,-734.569,137.882,-734.569,-20325.6,-12.3296,137.882,-12.3296,-18705.8,10,44,45,95,104,30
1223.4,0.0062562,0.00296862,0.00054441,-0.00152452,0.00054441,-0.00590639,-0.00188211,-0.00152452,-0.00188211,0.00177179,-7506.99,79.5308,-196.544,79.5308,-8661.14,-250.232,-196.544,-250.232,-7665.79,10,97,105,106,138,31
6279.61,0.0319302,0.0239283,-0.00227765,0.00452146,-0.00227765,-0.0296531,-0.00334983,0.00452146,-0.00334983,0.00263183,-26828.5,-264.696,593.789,-264.696,-33854.8,-458.108,593.789,-458.108,-29628.2,10,35,89,90,123,32
1194.58,0.00614231,0.00409136,0.00202626,0.00135658,0.00202626,-0.00425679,-0.00175182,0.00135658,-0.00175182,0.00227833,13763.8,256.748,176.458,256.748,12680,-234.378,176.458,-234.378,13522.1,10,32,78,128,129,33
2507.54,0.012895,0.00690883,0.00677722,0.00523783,0.00677722,-0.00708549,0.000214536,0.00523783,0.000214536,0.0025607,14659.1,850.259,680.037,850.259,12788.9,5.04665,680.037,5.04665,14052.7,10,32,39,119,120,34
5858.85,0.0298677,0.0238741,0.000234747,0.00168064,0.000234747,-0.0269243,-0.00428856,0.00168064,-0.00428856,0.00130464,-16876.3,49.0522,229.769,49.0522,-23509.2,-587.394,229.769,-587.394,-19833.6,10,34,35,89,123,35
3770.81,0.019373,0.016801,0.00204151,-0.00286229,0.00204151,-0.0152442,-0.00351938,-0.00286229,-0.00351938,0.000570221,12232,289.281,-348.3,289.281,8074.5,-461.426,-348.3,-461.426,10112,10,33,88,120,129,36
4315.46,0.0222094,0.0198223,0.00248866,0.00311153,0.00248866,-0.0159119,-0.00571876,0.00311153,-0.00571876,-0.000572674,19255.4,337.193,416.133,337.193,14640.7,-748.096,416.133,-748.096,16613.9,10,33,34,88,120,37
1931.39,0.00984456,0.00180131,0.00392827,-0.00561517,0.00392827,-0.00682414,0.000611916,-0.00561517,0.000611916,0.00198893,-20251.5,505.648,-730.995,505.648,-21406.2,83.2166,-730.995,83.2166,-20246.2,10,32,119,120,129,38
5816.41,0.0297918,0.024288,-0.00361315,0.00414394,-0.00361315,-0.0258984,-0.00130618,0.00414394,-0.00130618,0.0026858,1430.12,-442.097,539.734,-442.097,-5108.82,-179.379,539.734,-179.379,-1386.03,10,35,90,123,125,39
3781.58,0.0194262,0.0167261,-0.00246428,0.00304819,-0.00246428,-0.0152376,-0.0034984,0.00304819,-0.0034984,0.000575414,11796.9,-342.5,371.862,-342.5,7649.15,-457.993,371.862,-457.993,9685.86,10,33,88,94,103,40
1040.69,0.00532858,0.000886417,0.0028351,0.00128591,0.0028351,-0.00193348,-0.00302961,0.00128591,-0.00302961,0.000622029,-2896.15,365.768,169.257,365.768,-3262.06,-398.495,169.257,-398.495,-2941.6,10,32,33,73,129,41
865.227,0.00443626,0,0,0.0011168,0,0,0.00366932,0.0011168,0.00366932,0.000383909,2281.12,1.06565,145.262,1.06565,2284.3,477.267,145.262,477.267,2326.89,10,84,85,133,139,42
1366.3,0.00701522,0,0,1.78842e-05,0,0,0.00603098,1.78842e-05,0.00603098,0.00126912,7692.32,0.0280093,2.32489,0.0280093,7701.77,784.008,2.32489,784.008,7847.66,10,72,73,85,133,43
1358.93,0.00697242,0.00293223,-0.00362636,-0.00266676,-0.00362636,-0.00353047,-0.00217874,-0.00266676,-0.00217874,0.0014419,5341.91,-466.007,-349.495,-466.007,4501.75,-289.702,-349.495,-289.702,5139.9,10,44,73,103,139,44
4204.1,0.0215127,0.0152385,-0.00656736,-0.00249057,-0.00656736,-0.0170984,-0.00583154,-0.00249057,-0.00583154,0.00171886,-3425.09,-777.521,-299.693,-777.521,-7699.73,-768.239,-299.693,-768.239,-5221.26,10,52,54,99,102,45
2737.8,0.0139443,0.00806394,-0.00146107,-0.00257291,-0.00146107,-0.0142936,-0.000334149,-0.00257291,-0.000334149,0.00288533,-22418.3,-194.502,-338.763,-194.502,-25341.9,-42.6937,-338.763,-42.6937,-23091.8,10,33,87,88,103,46
1329.91,0.00682565,0.00217563,-0.00214818,0.00197052,-0.00214818,0.000902894,0.00466309,0.00197052,0.00466309,-0.00205038,6449.97,-276.114,253.516,-276.114,6283.3,606.381,253.516,606.381,5894.2,10,84,85,104,139,47
4950.64,0.0251146,0.0199378,-0.00390667,-0.00289412,-0.00390667,-0.0223745,-0.00108097,-0.00289412,-0.00108097,-0.00263529,-36269.3,-526.97,-392.501,-526.97,-41821.2,-144.185,-392.501,-144.185,-39228,10,34,88,89,94,48
4108.02,0.0210339,0.0158514,-0.00746342,-0.00437563,-0.00746342,-0.0158568,-0.00236769,-0.00437563,-0.00236769,0.000196311,-973.271,-895.871,-558.646,-895.871,-5169.87,-328.115,-558.646,-328.115,-3055.26,10,51,52,54,99,49
4020.82,0.0205362,0.0141389,-0.00786054,-0.00491502,-0.00786054,-0.015703,-0.00271648,-0.00491502,-0.00271648,0.000229956,-10825.6,-955.967,-630.249,-955.967,-14791,-376.771,-630.249,-376.771,-12688.6,10,51,53,54,99,50
802.236,0.00411437,0.00322807,0.000319105,0.000758206,0.000319105,-0.00229641,-0.00203536,0.000758206,-0.00203536,-0.000394379,3714.16,40.0977,98.9524,40.0977,2996.64,-265.017,98.9524,-265.017,3243.34,10,74,75,80,126,51
233.698,0.00119489,9.46986e-05,-0.000314959,0.000376503,-0.000314959,-0.00126704,0.000549669,0.000376503,0.000549669,-0.000147495,-8504.86,-40.9192,49.0746,-40.9192,-8682.42,71.8149,49.0746,71.8149,-8536.66,10,93,132,157,158,52
773.333,0.0039654,0.000801533,-0.00239154,0.00075508,-0.00239154,-0.00244199,0.000315268,0.00075508,0.000315268,0.00206466,2683.08,-310.45,98.9391,-310.45,2260.55,42.5437,98.9391,42.5437,2846.26,10,92,106,107,137,53
1346.29,0.00689795,0.00293261,0.0033264,-0.000669878,0.0033264,-0.00332625,-0.00377643,-0.000669878,-0.00377643,0.000397589,-59.3325,436.461,-84.4644,436.461,-866.8,-491.573,-84.4644,-491.573,-387.805,10,91,97,106,138,54
1366.3,0.00701522,0,0,1.78842e-05,0,0,0.00603098,1.78842e-05,0.00603098,0.00126912,7692.32,0.0280093,2.32489,0.0280093,7701.77,784.008,2.32489,784.008,7847.66,10,71,72,73,108,55
865.227,0.00443626,0,0,0.0011168,0,0,0.00366932,0.0011168,0.00366932,0.000383909,2281.12,1.06565,145.262,1.06565,2284.3,477.267,145.262,477.267,2326.89,10,84,133,134,139,56
852.732,0.00437169,0,0,-0.00109812,0,0,0.00361871,-0.00109812,0.00361871,0.000313856,1835.58,-1.03349,-142.839,-1.03349,1838.67,470.706,-142.839,470.706,1872.36,10,71,78,108,109,57
2650.93,0.0135273,-7.57648e-05,0.000873582,0.000818876,0.000873582,-0.00975017,-0.00776414,0.000818876,-0.00776414,0.0075922,-16193.8,116.611,104.609,116.611,-17480.7,-987.662,104.609,-987.662,-15168.3,10,7,56,57,145,58
1851.28,0.0094367,1.25267e-05,0.000109495,-0.000164139,0.000109495,-0.0015657,0.00812225,-0.000164139,0.00812225,-0.00146073,-20298.2,14.5296,-21.7957,14.5296,-20492.4,1062.27,-21.7957,1062.27,-20503,10,73,85,86,87,59
1830.8,0.00934962,0.00200501,-0.00292322,0.00367578,-0.00292322,0.00042348,0.0057102,0.00367578,0.0057102,-0.00433729,-12893.5,-379.044,478.245,-379.044,-13100.5,745.443,478.245,745.443,-13728.8,10,85,103,104,139,60
2649.94,0.0135258,8.35754e-05,-7.87961e-05,-0.00113089,-7.87961e-05,-0.00975031,-0.00776426,-0.00113089,-0.00776426,0.00759231,-15144.6,-13.9804,-147.661,-13.9804,-16452,-987.413,-147.661,-987.413,-14140.2,10,7,56,57,67,61
577.748,0.00296136,2.62831e-05,0.00148999,-0.000222068,0.00148999,-0.00188492,0.000673309,-0.000222068,0.000673309,0.00204122,1094.19,193.508,-28.9589,193.508,844.841,87.6799,-28.9589,87.6799,1355.84,10,77,79,126,130,62
3849.84,0.0197305,0.0139546,0.0060989,0.00237641,0.0060989,-0.014697,-0.0065442,0.00237641,-0.0065442,0.00142173,2406.52,729.714,284,729.714,-1373.69,-858.558,284,-858.558,746.625,10,38,40,122,124,63
2428.49,0.0123564,0.0074953,-0.00110099,-0.00427038,-0.00110099,-0.00392243,-0.00576046,-0.00427038,-0.00576046,-0.00758702,-26405.4,-150.985,-569.483,-150.985,-27898.1,-754.134,-569.483,-754.134,-28367.8,10,7,8,17,58,64
1347.1,0.00690556,0.00529215,0.00172896,0.000581349,0.00172896,-0.00461654,-0.00277917,0.000581349,-0.00277917,-0.000373139,2168.92,232.129,77.7284,232.129,886.386,-361.686,77.7284,-361.686,1433.88,10,91,92,106,138,65
953.536,0.00488449,0.00201413,-0.00226539,0.00164952,-0.00226539,-0.00187967,0.00249089,0.00164952,0.00249089,-0.000303423,-1056.43,-292.573,213.625,-292.573,-1565.66,325.767,213.625,325.767,-1362.7,10,83,105,107,137,66
2215.29,0.0113482,0.00830218,-0.00327464,0.000886814,-0.00327464,-0.00980819,-0.0011692,0.000886814,-0.0011692,0.00151371,-120.074,-406.516,119.253,-406.516,-2489.42,-154.125,119.253,-154.125,-1009.02,10,46,96,97,105,67
1144.25,0.00587386,0.00249216,-0.00123973,0.00277064,-0.00123973,0.0017911,-0.0026771,0.00277064,-0.0026771,-0.00316127,7207.46,-158.36,363.68,-158.36,7118.43,-350.33,363.68,-350.33,6482.4,10,46,47,97,138,68
948.055,0.00485792,0.00264754,0.00134171,-0.00131847,0.00134171,-0.0024932,0.00274572,-0.00131847,0.00274572,-0.000136586,230.667,171.418,-169.617,171.418,-440.249,358.61,-169.617,358.61,-135.545,10,77,110,127,130,69
4797.42,0.0243845,0.0141933,-0.00642046,0.00668933,-0.00642046,-0.0169405,-0.0108466,0.00668933,-0.0108466,-0.00121669,-29522.6,-745.697,936.19,-745.697,-33649.1,-1407.05,936.19,-1407.05,-31499.7,10,52,99,100,102,70
1256.16,0.00644852,0.00260408,0.00158587,-0.00274568,0.00158587,0.0026814,-0.00241149,-0.00274568,-0.00241149,-0.00413599,7329.97,203.703,-360.995,203.703,7342.77,-316.147,-360.995,-316.147,6463.15,10,29,30,80,117,71
1311.82,0.0067167,0.00351902,0.00278647,-0.00250358,0.00278647,0.00015058,-0.00230119,-0.00250358,-0.00230119,-0.0040824,-2643.64,361.726,-330.734,361.726,-3076.8,-303.495,-330.734,-303.495,-3623.84,10,29,74,80,117,72
1462.37,0.00750361,0.00683571,0.00111562,0.00182449,0.00111562,-0.00533582,-4.05863e-06,0.00182449,-4.05863e-06,-0.000611834,6062.66,135.781,235.028,135.781,4477.11,-4.54454,235.028,-4.54454,5091.06,10,30,77,80,127,73
1501.71,0.00771272,0.00652721,0.000975299,0.00216313,0.000975299,-0.00588577,-0.000617641,0.00216313,-0.000617641,0.00081736,9662.54,116.82,279.604,116.82,8048.5,-85.6102,279.604,-85.6102,8917.47,10,31,77,127,128,74
865.491,0.00444802,0.000764166,0.0028133,-0.00169286,0.0028133,0.000281365,0.00199587,-0.00169286,0.00199587,0.000744861,11428.4,364.419,-221.056,364.419,11370.5,258.745,-221.056,258.745,11426.1,10,70,77,78,109,75
1419.09,0.00728514,0.00622185,0.00102496,0.00276035,0.00102496,-0.00472034,-0.000905538,0.00276035,-0.000905538,-0.000319688,7904.55,123.505,356.792,123.505,6480.19,-121.676,356.792,-121.676,7050.5,10,30,31,77,127,76
884.545,0.00454701,0.000729213,-0.0028238,0.00181796,-0.0028238,0.000252148,0.00202488,0.00181796,0.00202488,0.000950773,12326.9,-365.678,237.284,-365.678,12269.8,262.427,237.284,262.427,12355.8,10,84,134,136,139,77
1648.6,0.008421,0.00209415,-0.00430585,0.00258824,-0.00430585,-0.00205107,0.00474249,0.00258824,0.00474249,-0.0018429,-12017.4,-560.047,337.197,-560.047,-12558,620.475,337.197,620.475,-12536,10,84,104,136,139,78
4512.96,0.0231797,0.0136272,0.00990347,-0.00507661,0.00990347,-0.0152728,-0.00793859,-0.00507661,-0.00793859,0.00385703,10818,1219.06,-686.061,1219.06,6954.3,-982.073,-686.061,-982.073,9523.95,10,67,151,152,153,79
6493.51,0.0331889,0.0204019,0.0152551,-0.000881077,0.0152551,-0.0253595,-0.00707268,-0.000881077,-0.00707268,0.00508772,-7247.44,1832.96,-146.874,1832.96,-13429.8,-883.814,-146.874,-883.814,-9332.73,10,64,151,152,155,80
4661.97,0.0239803,0.0182473,0.00949686,-0.00812568,0.00949686,-0.0145134,0.00217798,-0.00812568,0.00217798,-0.000591154,17099.7,1141.14,-1036.54,1141.14,12750.4,316.604,-1036.54,316.604,14584.1,10,65,147,150,153,81
2220.06,0.0112666,3.5614e-06,0.00616031,0.00615331,0.00616031,-0.00578111,-0.00280992,0.00615331,-0.00280992,0.000174377,-37378.2,799.748,808.447,799.748,-38165.7,-381.412,808.447,-381.412,-37387.9,10,60,147,148,153,82
4530.52,0.0232478,0.0143373,0.0112135,-0.00747871,0.0112135,-0.0150657,-0.00224581,-0.00747871,-0.00224581,0.00237199,7267.64,1374.17,-982.61,1374.17,3327.35,-254.411,-982.61,-254.411,5651.68,10,64,65,150,151,83
4285.1,0.0220166,0.0143205,-0.00594982,0.00875823,-0.00594982,-0.0165986,-0.00120085,0.00875823,-0.00120085,0.0046059,12175,-694.438,1142.07,-694.438,8106.17,-110.867,1142.07,-110.867,10881.5,10,11,16,18,144,84
3899.59,0.0200315,0.0117502,-0.00630119,0.0084435,-0.00630119,-0.0147457,-0.000268818,0.0084435,-0.000268818,0.0050675,11001.1,-757.811,1099.79,-757.811,7508.68,6.10751,1099.79,6.10751,10096,10,11,18,141,144,85
3414.5,0.0173879,0.0125698,-0.00349527,0.00367984,-0.00349527,-0.00834814,-0.00779489,0.00367984,-0.00779489,-0.00750872,-22488.9,-415.728,508.581,-415.728,-25256.6,-1015.44,508.581,-1015.44,-25107.9,10,14,17,18,145,86
1369.49,0.00699899,0.00433837,-0.000575169,0.00196308,-0.000575169,-0.00667836,-0.000945242,0.00196308,-0.000945242,0.000819478,-9708.29,-66.5274,257.166,-66.5274,-11147.3,-119.482,257.166,-119.482,-10166.9,10,16,143,144,146,87
4133.88,0.0211548,0.00964316,-0.0088321,0.00719294,-0.0088321,-0.0150955,-0.00559459,0.00719294,-0.00559459,0.00532363,-3893.94,-1092.2,959.114,-1092.2,-7200,-685.485,959.114,-685.485,-4477.7,10,15,143,144,145,88
1203.16,0.00618693,0.00417239,-0.00211122,-0.00152293,-0.00211122,-0.00421047,-0.00165086,-0.00152293,-0.00165086,0.00219814,14072.6,-267.355,-198.11,-267.355,12983.8,-221.398,-198.11,-221.398,13809.9,10,44,103,104,139,89
1054.53,0.00540033,0.000926943,-0.00297458,-0.0013689,-0.00297458,-0.001922,-0.00294442,-0.0013689,-0.00294442,0.000666861,-2274.28,-383.663,-180.23,-383.663,-2644.61,-387.516,-180.23,-387.516,-2319.34,10,33,44,73,103,90
7623.37,0.03904,0.0203165,-0.02616,-0.00495092,-0.02616,-0.0211802,0.000531086,-0.00495092,0.000531086,0.00278795,420.579,-3191.53,-648.423,-3191.53,-5482.15,3.39946,-648.423,3.39946,-2124.39,10,54,99,101,102,91
2964.6,0.0151753,0.00879846,-0.00601433,-0.00622999,-0.00601433,-0.0101391,-0.00266225,-0.00622999,-0.00266225,0.00104972,-2943.34,-750.106,-805.028,-750.106,-5449.87,-366.093,-805.028,-366.093,-3990.29,10,44,45,53,95,92
5133.31,0.0262699,0.00892085,0.0184808,0.00724599,0.0184808,-0.0117503,0.00315965,0.00724599,0.00315965,0.00307926,-3834.08,2343.78,964.206,2343.78,-6742.58,366.08,964.206,366.08,-4709.3,10,35,39,40,123,93
6839.7,0.0347455,0.00818696,-0.0265537,-0.00500807,-0.0265537,-0.0155785,0.00376743,-0.00500807,0.00376743,0.00402353,-32334.3,-3386.97,-687.441,-3386.97,-35856.2,452.586,-687.441,452.586,-33079.6,10,35,54,98,101,94
6017.69,0.030408,0.0213588,-0.00703902,-0.00370111,-0.00703902,-0.0281221,-0.00384394,-0.00370111,-0.00384394,-0.000200713,-51248,-874.338,-486.859,-874.338,-57802.1,-522.305,-486.859,-522.305,-54110.1,10,35,36,90,101,95
6072.56,0.0307325,0.0223051,-0.00744434,-1.68636e-05,-0.00744434,-0.0281221,-0.00384394,-1.68636e-05,-0.00384394,-0.000200713,-45191.5,-927.654,9.65129,-927.654,-51860.4,-521.124,9.65129,-521.124,-48174,10,35,36,90,125,96
1351.58,0.00693274,0.00561761,-0.00151559,-0.000786088,-0.00151559,-0.00563539,-0.0011459,-0.000786088,-0.0011459,0.000687373,4576.26,-189.67,-99.4041,-189.67,3110.36,-152.559,-99.4041,-152.559,3931.24,10,46,97,105,138,97
2635.7,0.0134927,0.00931893,-0.00436106,-0.00438223,-0.00436106,-0.00982653,-0.0025718,-0.00438223,-0.0025718,0.000192291,-2569.58,-532.639,-562.528,-532.639,-5093.23,-350.151,-562.528,-350.151,-3786.24,10,45,51,95,96,98
4373.95,0.0225187,0.0200625,-0.00300731,-0.0035627,-0.00300731,-0.0159119,-0.00571876,-0.0035627,-0.00571876,-0.000572674,20697.5,-401.315,-473.738,-401.315,16053.4,-747.771,-473.738,-747.771,18026.1,10,33,34,88,94,99
1435.11,0.00736848,0.00633971,-0.00111771,-0.0028987,-0.00111771,-0.004622,-0.000680834,-0.0028987,-0.000680834,-0.000443972,8499.8,-135.327,-374.967,-135.327,7072.68,-92.6718,-374.967,-92.6718,7614.42,10,45,46,105,136,100
506.904,0.00259478,-0.000917757,-0.00103267,0.0011585,-0.00103267,-0.000812065,0.0011568,0.0011585,0.0011568,0.00111003,-4176.7,-133.984,151.453,-133.984,-4163.15,151.416,151.453,151.416,-3914.26,10,83,134,136,137,101
486.361,0.00249692,0,0,0.00138948,0,0,0.00152134,0.00138948,0.00152134,0.00113687,7258.71,0.549,180.636,0.549,7258.81,197.779,180.636,197.779,7404.74,10,83,84,134,136,102
2899.58,0.0148863,0.0104585,-0.0053089,-0.00545174,-0.0053089,-0.00987581,-0.00219254,-0.00545174,-0.00219254,0.000885157,8678.99,-655.012,-701.358,-655.012,6003.46,-300.973,-701.358,-300.973,7405.54,10,45,51,53,95,103
1964.56,0.010007,0.00137519,-0.00421421,0.00570796,-0.00421421,-0.00681725,0.000709906,0.00570796,0.000709906,0.00201668,-22863.8,-543.443,743.445,-543.443,-23966.1,96.8888,743.445,96.8888,-22801.8,10,44,94,95,103,104
2065.67,0.0105015,0.000641438,0.00649856,-0.00407641,0.00649856,-0.00709891,0.000437104,-0.00407641,0.000437104,0.00187812,-30514.8,846.735,-530.443,846.735,-31561.7,59.3795,-530.443,59.3795,-30375.3,10,32,33,120,129,105
1034.38,0.0053186,0.00149025,-0.0015991,0.000566247,-0.0015991,1.95881e-05,0.00421754,0.000566247,0.00421754,0.000586239,13407.3,-206.692,75.0215,-206.692,13222.4,547.238,75.0215,547.238,13285.8,10,73,85,133,139,106
1533.14,0.00786516,0.00515483,0.00334667,0.0027476,0.00334667,-0.00495429,-0.0014219,0.0027476,-0.0014219,0.000576859,5077.12,429.327,357.9,429.327,3759.8,-190.176,357.9,-190.176,4475.72,10,31,77,78,128,107
1802.24,0.00920459,0.00201456,0.00288616,-0.0036565,0.00288616,0.000369675,0.00559646,-0.0036565,0.00559646,-0.00424293,-12543.1,374.337,-476.045,374.337,-12757.7,730.33,-476.045,730.33,-13366.7,10,78,108,128,129,108
2865.07,0.0146684,0.00305645,0.00938686,0.00613558,0.00938686,-0.00681898,0.00117224,0.00613558,0.00117224,0.00355676,-2987.57,1205.24,806.804,1205.24,-4333.94,131.087,806.804,131.087,-2962.96,10,32,33,39,120,109
1851.09,0.00954605,0.00797212,8.60241e-05,0.00230628,8.60241e-05,-0.00356799,-0.00523404,0.00230628,-0.00523404,-0.000441968,25628.4,10.6517,300.921,10.6517,24148.5,-679.615,300.921,-679.615,24533,10,33,73,87,129,110
449.521,0.00230339,-0.000315103,0.000436409,-0.00125445,0.000436409,-0.000570026,0.00127316,-0.00125445,0.00127316,0.000874126,-162.956,56.2534,-163.517,56.2534,-196.076,166.06,-163.517,166.06,-9.77603,10,70,77,110,130,111
471.495,0.0024196,0,0,-0.00138337,0,0,0.00148788,-0.00138337,0.00148788,0.000888859,5666.24,-0.534784,-179.872,-0.534784,5666.32,193.46,-179.872,193.46,5780.14,10,70,77,109,110,112
2830.42,0.0145248,0.0102296,0.00520115,0.0051853,0.00520115,-0.00963409,-0.0023701,0.0051853,-0.0023701,0.000587301,6916.82,642.914,666.526,642.914,4302.73,-322.887,666.526,-322.887,5635.03,10,31,37,39,119,113
5971.34,0.0304681,0.0244565,-0.0026431,-0.00295066,-0.0026431,-0.0269243,-0.00428856,-0.00295066,-0.00428856,0.00130464,-13391.5,-344.852,-393.822,-344.852,-20094.5,-586.876,-393.822,-586.876,-16421.9,10,34,35,89,98,114
6917.58,0.0351585,0.018939,-0.00573325,-0.0115706,-0.00573325,-0.0283817,-0.0126147,-0.0115706,-0.0126147,0.00642327,-29189.6,-711.046,-1488.17,-711.046,-35472.3,-1617.56,-1488.17,-1617.56,-30834.8,10,3,36,43,101,115
4440.22,0.0227245,0.011949,0.00756569,0.00362978,0.00756569,-0.0185751,-0.00712526,0.00362978,-0.00712526,0.00666497,-3252.62,925.425,448.671,925.425,-7300.97,-920.235,448.671,-920.235,-3969.13,10,22,115,116,125,116
4866.53,0.0248551,0.0125971,0.00956873,0.00781699,0.00956873,-0.0182996,-0.00729442,0.00781699,-0.00729442,0.00466017,-11117.3,1203.14,998.976,1203.14,-15225.7,-950.664,998.976,-950.664,-12183.5,10,22,36,116,125,117
4103.95,0.0207449,0.00161375,0.0161455,1.65006e-05,0.0161455,-0.0102821,0.00407774,1.65006e-05,0.00407774,0.00116526,-52413.2,2101.07,21.0775,2101.07,-54130.3,532.084,21.0775,532.084,-52539,10,34,39,120,123,118
2254.89,0.0115555,0.00855171,-0.00280419,-0.00154408,-0.00280419,-0.00916605,-0.0033114,-0.00154408,-0.0033114,0.000860009,1399.59,-343.346,-192.724,-343.346,-915.939,-438.716,-192.724,-438.716,385.905,10,46,96,97,100,119
1354.3,0.00693949,0.00337117,-0.000248898,0.00490204,-0.000248898,-0.00144678,-0.00187936,0.00490204,-0.00187936,-0.00187872,256.263,-28.1557,642.689,-28.1557,-363.377,-244.912,642.689,-244.912,-406.688,10,47,48,91,97,120
4105.84,0.0210096,0.0163424,0.00813903,0.00176851,0.00813903,-0.0151879,-0.00345198,0.00176851,-0.00345198,-0.00134062,-3324.71,986.666,208.603,986.666,-7503.66,-463.102,208.603,-463.102,-5670.56,10,37,38,121,122,121
4089.73,0.0209216,0.0160876,-0.00809442,-0.00212143,-0.00809442,-0.0154613,-0.00297929,-0.00212143,-0.00297929,-0.000978571,-4393.79,-981.442,-257.682,-981.442,-8576.06,-403.128,-257.682,-403.128,-6660.76,10,51,52,99,100,122
4359.13,0.0221787,0.0162385,0.00655462,0.000906917,0.00655462,-0.0195447,-0.00208348,0.000906917,-0.00208348,-0.000219284,-25391.8,768.478,109.211,768.478,-30142.7,-277.422,109.211,-277.422,-27580.3,10,23,24,38,114,123
3991.06,0.020382,0.0141091,0.00792704,0.00463141,0.00792704,-0.0153791,-0.00313233,0.00463141,-0.00313233,-0.000137156,-11239.2,966.08,591.232,966.08,-15159.1,-429.311,591.232,-429.311,-13146.4,10,37,39,40,122,124
4316.4,0.0219271,0.0100688,0.00658509,-0.00727845,0.00658509,-0.0129627,-0.0114734,-0.00727845,-0.0114734,-0.00158488,-32275.3,794.993,-1003.5,794.993,-35329.6,-1496.03,-1003.5,-1496.03,-33745.3,10,38,121,122,124,125
3472.72,0.0176973,0.0122969,0.00590051,-0.00112213,0.00590051,-0.0139975,-0.00509363,-0.00112213,-0.00509363,-0.00113019,-19683,718.925,-165.618,718.925,-23168.8,-661.588,-165.618,-661.588,-21454.4,10,23,38,40,124,126
1489.22,0.00764679,0.00430702,0.00171191,-0.00476863,0.00171191,0.00066387,-0.00152002,-0.00476863,-0.00152002,-0.00365198,8474.27,219.8,-625.913,219.8,8008.35,-200.091,-625.913,-200.091,7457.34,10,27,28,29,117,127
1262.39,0.00647773,0.00563885,0.00179502,0.000929497,0.00179502,-0.00474174,-0.000613721,0.000929497,-0.000613721,-5.99824e-06,6065.1,226.885,118.464,226.885,4712.37,-83.4793,118.464,-83.4793,5327.35,10,30,80,117,127,128
2213.91,0.0113427,0.00838316,0.00276035,0.0011808,0.00276035,-0.00906493,-0.00331024,0.0011808,-0.00331024,0.000770139,411.594,338.704,145.566,338.704,-1868.55,-437.94,145.566,-437.94,-590.625,10,30,117,118,121,129
340.436,0.00174109,-0.000127204,0.000941234,0.000917076,0.000941234,-0.00120354,0.00015837,0.000917076,0.00015837,0.000168711,-7532.51,122.624,119.526,122.624,-7672.73,20.7076,119.526,20.7076,-7493.55,10,75,76,79,130,130
2304.85,0.0118529,0.00988853,0.0014842,0.00204997,0.0014842,-0.00858626,-0.00368502,0.00204997,-0.00368502,0.00105467,15089.2,168.303,256.065,168.303,12688.2,-484.907,256.065,-484.907,13932.2,10,30,37,118,121,131
3630.16,0.0185641,0.0126306,0.00792075,0.0030021,0.00792075,-0.0144436,-0.0014509,0.0030021,-0.0014509,0.0011141,-6185.64,976.106,385.595,976.106,-9779.21,-200.847,385.595,-200.847,-7723.04,10,37,39,119,122,132
1239.75,0.00635524,0.00309161,0.00170725,-0.00322933,0.00170725,0.000916597,-0.00220445,-0.00322933,-0.00220445,-0.00371592,1887.75,219.386,-424.811,219.386,1606.95,-289.327,-424.811,-289.327,1011.88,10,27,29,30,117,133
4925.96,0.0249905,0.0199544,0.00240817,0.00357977,0.00240817,-0.0223745,-0.00108097,0.00357977,-0.00108097,-0.00263529,-36095.8,338.127,479.926,338.127,-41649.8,-144.242,479.926,-144.242,-39056.9,10,34,88,89,120,134
1558.19,0.00799972,0.00543762,0.00195754,-0.00292388,0.00195754,-0.00110804,-0.00395952,-0.00292388,-0.00395952,-0.00309632,8021.84,247.589,-387.726,247.589,7168.98,-515.1,-387.726,-515.1,6923.43,10,26,37,38,121,135
4016.12,0.0204561,0.0148069,-0.00626595,0.000985684,-0.00626595,-0.0169127,-0.00469703,0.000985684,-0.00469703,-0.000870379,-21317.5,-746.211,149.267,-746.211,-25524.8,-609.578,149.267,-609.578,-23390.7,10,41,42,52,102,136
419.084,0.00214574,0.000143313,-0.00166181,-0.000623644,-0.00166181,-0.000589913,0.000395465,-0.000623644,0.000395465,-3.49968e-05,-3128.51,-216.406,-81.2079,-216.406,-3223.25,51.6787,-81.2079,51.6787,-3151.19,10,92,107,137,158,137
6052.32,0.0309569,0.00791545,-0.0217479,-0.0108105,-0.0217479,-0.0124229,0.00294727,-0.0108105,0.00294727,0.00484802,-5943.17,-2758.88,-1436.16,-2758.88,-8892.52,306.138,-1436.16,306.138,-6521.45,10,34,35,53,98,138
6271.64,0.031798,0.0168592,-0.0186897,0.000275905,-0.0186897,-0.0203382,-0.00793691,0.000275905,-0.00793691,-0.00134979,-38735.7,-2305.49,91.6826,-2305.49,-43914.8,-1039.23,91.6826,-1039.23,-41255.9,10,2,42,54,102,139
2342.96,0.0120489,0.0099568,-0.00161841,-0.00236101,-0.00161841,-0.00871858,-0.00366202,-0.00236101,-0.00366202,0.00112749,15109.8,-184.922,-296.412,-184.922,12681.9,-482.708,-296.412,-482.708,13952.1,10,46,51,96,100,140
2110.66,0.0108047,0.00800058,-0.00244927,-0.00128531,-0.00244927,-0.00950893,-0.00146228,-0.00128531,-0.00146228,0.00107927,-2854.79,-298.003,-164.664,-298.003,-5146.44,-193.07,-164.664,-193.07,-3762.78,10,45,46,96,105,141
4618.51,0.0235405,0.0092105,-0.0165219,-0.00271477,-0.0165219,-0.0129214,0.00306504,-0.00271477,0.00306504,0.00134858,-19338.7,-2086.43,-373.346,-2086.43,-22449.6,372.625,-373.346,372.625,-20472.2,10,53,95,98,99,142
1251.3,0.00642123,0.00456141,-0.00133681,0.00245987,-0.00133681,-0.000705711,-0.00287992,0.00245987,-0.00287992,-0.00292701,6169.21,-169.685,325.102,-169.685,5484.38,-374.884,325.102,-374.884,5203.15,10,49,50,51,100,143
4586.83,0.0235206,0.0143235,0.0102407,-0.00551103,0.0102407,-0.0155678,-0.00728403,-0.00551103,-0.00728403,0.00249577,4591.22,1260.6,-740.378,1260.6,587.155,-897.899,-740.378,-897.899,3018.29,10,64,67,151,152,144
1440.56,0.00734995,0.00233668,0.00212786,-0.00305857,0.00212786,-0.00306899,0.00432039,-0.00305857,0.00432039,-0.00177606,-16388.3,275.062,-397.873,275.062,-17096.7,566.018,-397.873,566.018,-16931.8,10,77,109,127,128,145
3381.15,0.0170721,0.0004836,-0.00138681,-0.00030505,-0.00138681,-0.017097,-0.00694025,-0.00030505,-0.00694025,0.00822863,-56969.2,-190.816,-41.1357,-190.816,-59304.9,-884.913,-41.1357,-884.913,-55928.7,10,6,7,56,67,146
4415.87,0.0225525,0.015862,0.000165508,0.00908032,0.000165508,-0.0169622,-0.00543782,0.00908032,-0.00543782,-0.00014363,-10845.7,13.0885,1152.08,13.0885,-15180.7,-688.666,1152.08,-688.666,-12988.4,10,6,56,67,152,147
5222.79,0.0267362,0.0199435,0.00303883,0.00481148,0.00303883,-0.0202476,-0.00998042,0.00481148,-0.00998042,0.000786015,-1306.52,380.401,620.594,380.401,-6577.21,-1267.93,620.594,-1267.93,-3768.58,10,5,6,19,55,148
4183.61,0.0212293,0.0147329,0.000794887,-0.00815933,0.000794887,-0.016877,-0.00444089,-0.00815933,-0.00444089,-0.00303757,-35845.6,101.557,-1035.99,101.557,-40045.6,-559.732,-1035.99,-559.732,-38232.4,10,6,14,56,145,149
3419.57,0.0172385,-0.000459904,0.0030128,0.00016182,0.0030128,-0.0170965,-0.00694035,0.00016182,-0.00694035,0.0082286,-63260.5,402.084,18.6092,402.084,-65475.1,-886.342,18.6092,-886.342,-62093.5,10,6,7,56,145,150
4923.45,0.0252031,0.0199791,0.00870308,-0.00393245,0.00870308,-0.0183747,-0.00400049,-0.00393245,-0.00400049,-0.00127049,-1383.3,1069.71,-536.303,1069.71,-6438.02,-489.974,-536.303,-489.974,-4159.35,10,6,67,152,154,151
4142.94,0.0212566,0.0157794,0.00115224,0.00411446,0.00115224,-0.0164108,-0.00772406,0.00411446,-0.00772406,0.00207953,6949.65,158.666,540.129,158.666,2747.93,-974.211,540.129,-974.211,5202.52,10,6,14,19,55,152
4890.52,0.0251104,0.0156148,0.00441926,-0.000100718,0.00441926,-0.0209545,-0.00919537,-0.000100718,-0.00919537,0.00750048,9724.92,553.538,-26.6441,553.538,4933.38,-1139.36,-26.6441,-1139.36,8701.09,10,5,55,152,156,153
4155.98,0.0212999,0.0146684,-0.00190136,0.0026364,-0.00190136,-0.0120292,-0.0121722,0.0026364,-0.0121722,-0.00184943,2539.3,-250.782,345.946,-250.782,-964.173,-1569.69,345.946,-1569.69,431.359,10,4,21,36,116,154
5619.41,0.0286824,0.0126954,-0.00859237,-0.00107648,-0.00859237,-0.0242889,-0.0105623,-0.00107648,-0.0105623,0.0104973,-13572,-1103.6,-137.488,-1103.6,-18407.8,-1394.59,-137.488,-1394.59,-13870.1,10,4,36,90,116,155
6783.65,0.0346565,0.0207265,-0.00259222,-0.00863636,-0.00259222,-0.0317731,-0.00622048,-0.00863636,-0.00622048,0.0110678,-9003.36,-310.579,-1115.64,-310.579,-15877.7,-796.356,-1115.64,-796.356,-10284.3,10,3,36,90,101,156
441.029,0.00225789,0.000537054,-0.00151752,-0.000269603,-0.00151752,-0.000971587,0.000935241,-0.000269603,0.000935241,-0.000103568,-3445.85,-197.564,-35.077,-197.564,-3641.87,122.042,-35.077,122.042,-3529.08,10,107,137,157,158,157
2739.34,0.0139518,0.00805024,0.00103475,0.00282253,0.00103475,-0.0142936,-0.000334149,0.00282253,-0.000334149,0.00288533,-22509.8,139.893,371.173,139.893,-25431.9,-42.7293,371.173,-42.7293,-23181.8,10,33,87,88,129,158
1346.08,0.00690526,0.00289311,0.00352227,0.00260301,0.00352227,-0.00358577,-0.0022444,0.00260301,-0.0022444,0.00142735,4644.23,452.832,341.156,452.832,3802.39,-298.121,341.156,-298.121,4445.67,10,32,73,78,129,159
4121.02,0.0207931,0.000759595,-0.0025789,0.00836327,-0.0025789,-0.0132594,-0.0128139,0.00836327,-0.0128139,0.00389986,-59670.1,-326.354,1118.7,-326.354,-61586.7,-1654.29,1118.7,-1654.29,-59234.3,10,4,19,21,43,160
5627.45,0.0288699,0.0157526,0.00118072,-0.00621644,0.00118072,-0.0242883,-0.0105628,-0.00621644,-0.0105628,0.0104977,6470.44,218.554,-789.372,218.554,1272.58,-1385.9,-789.372,-1385.9,5776.82,10,3,4,36,90,161
5343.48,0.0272657,0.0108448,0.0191235,0.00114199,0.0191235,-0.0156832,0.00179675,0.00114199,0.00179675,0.00342556,-14862.5,2407.17,156.32,2407.17,-18583,209.769,156.32,209.769,-15959.7,10,22,40,115,125,162
5520.85,0.0280947,0.00856188,0.0204616,0.0061359,0.0204616,-0.0135666,0.00252289,0.0061359,0.00252289,0.00203925,-25595.5,2607.09,822.293,2607.09,-28750.4,287.463,822.293,287.463,-26583.5,10,35,36,40,125,163
7035.67,0.0359561,0.0147624,-0.0258976,-0.000580922,-0.0258976,-0.0189162,0.000776038,-0.000580922,0.000776038,0.00450589,-8282.92,-3223.27,-74.0545,-3223.27,-13122.8,64.8239,-74.0545,64.8239,-9845.4,10,2,43,54,101,164
5439.49,0.0276769,0.0169647,0.00657441,-0.00796578,0.00657441,-0.0193732,-0.0117315,-0.00796578,-0.0117315,-0.000675231,-25125,836.172,-1042.68,836.172,-29952,-1499.49,-1042.68,-1499.49,-27447.1,10,5,22,55,156,165
5168.68,0.0264921,0.0196624,0.00339924,0.00313554,0.00339924,-0.0200836,-0.0104366,0.00313554,-0.0104366,0.00163132,3459.56,424.673,404.225,424.673,-1748.5,-1323.58,404.225,-1323.58,1148.02,10,5,19,21,55,166
4123.47,0.0205462,0.00307885,0.0124702,0.000533766,0.0124702,-0.018397,-0.00543847,0.000533766,-0.00543847,-0.000744312,-107767,1624.58,53.2991,1624.58,-110743,-721.618,53.2991,-721.618,-108321,10,21,22,36,116,167
6138.63,0.0313715,0.0175496,-0.005718,5.58593e-05,-0.005718,-0.0240229,-0.0155757,5.58593e-05,-0.0155757,0.00636986,-8124.76,-647.243,49.1667,-647.243,-13630.7,-1998.94,49.1667,-1998.94,-9575.77,10,3,4,19,43,168
4581.5,0.0236295,0.0202294,0.000701325,0.0014191,0.000701325,-0.0154835,-0.00977318,0.0014191,-0.00977318,-8.43582e-06,27642.6,85.9034,192.799,85.9034,22990.2,-1233.01,192.799,-1233.01,25067.5,10,4,5,19,21,169
1093.18,0.00559914,-2.91791e-05,-0.00344649,0.00134558,-0.00344649,-0.00252246,0.00198865,0.00134558,0.00198865,0.00232214,-1786.27,-447.889,174.981,-447.889,-2113.8,259.494,174.981,259.494,-1482.17,10,105,106,107,137,170
5435.4,0.0277949,0.0209958,-0.00694198,-0.00345107,-0.00694198,-0.0242419,-0.000188597,-0.00345107,-0.000188597,0.00317392,-5278.2,-863.389,-454.494,-863.389,-11198.9,-35.4701,-454.494,-35.4701,-7611.87,10,35,90,98,101,171
3057.88,0.0156991,0.00455343,-0.00975643,-0.00688761,-0.00975643,-0.00685545,0.00121403,-0.00688761,0.00121403,0.00381051,7948.67,-1245.97,-901.954,-1245.97,6399.35,133.34,-901.954,133.34,7805.79,10,34,44,53,94,172
2882.88,0.0148126,0.00450803,0.00871187,0.00701727,0.00871187,-0.00653146,0.000818259,0.00701727,0.000818259,0.00397327,11040.9,1111.2,916.728,1111.2,9551.34,83.4698,916.728,83.4698,10929,10,33,34,39,120,173
5513.24,0.0281703,0.00714731,0.0195515,0.00979124,0.0195515,-0.0122011,0.00262179,0.00979124,0.00262179,0.0045263,-10070,2485.88,1300.76,2485.88,-12838.3,276.434,1300.76,276.434,-10557.4,10,34,35,39,123,174
2895.44,0.0148141,0.0086017,0.00589556,0.00597089,0.00589556,-0.00989581,-0.00283552,0.00597089,-0.00283552,0.000700532,-4815.07,736.527,771.073,736.527,-7263.78,-387.399,771.073,-387.399,-5880.88,10,31,32,39,119,175
1587.51,0.00811002,0.00205641,0.00419551,-0.0024697,0.00419551,-0.00203895,0.00451744,-0.0024697,0.00451744,-0.0017468,-11517.7,545.682,-321.871,545.682,-12051.3,590.963,-321.871,590.963,-12018.6,10,77,78,109,128,176
2611.49,0.0134301,0.00673466,-0.00719573,-0.00570234,-0.00719573,-0.00711003,0.000284743,-0.00570234,0.000284743,0.00280285,14783.3,-903.089,-741.162,-903.089,12926.2,12.0134,-741.162,12.0134,14226.5,10,44,53,94,95,177
1029.19,0.00529171,0.00151447,0.00163648,-0.000519128,0.00163648,2.94729e-05,0.00418135,-0.000519128,0.00418135,0.000532927,13289.7,211.588,-68.9256,211.588,13102.9,542.539,-68.9256,542.539,13158.3,10,71,73,78,108,178
2159.96,0.0109816,0.000665817,-0.00687722,0.00435299,-0.00687722,-0.00710771,0.000539264,0.00435299,0.000539264,0.00191828,-30250.7,-896.026,566.276,-896.026,-31305.6,73.6551,566.276,73.6551,-30111.8,10,33,44,94,103,179
3231.53,0.0165728,0.00351174,-0.0102274,-0.00772413,-0.0102274,-0.00704784,0.000999425,-0.00772413,0.000999425,0.00444253,3668.2,-1308.49,-1013.51,-1308.49,2220.83,101.155,-1013.51,101.155,3733.73,10,33,34,44,94,180
1128.8,0.00579345,0.00338256,-0.00196275,-0.00269662,-0.00196275,-0.00303168,-0.00192022,-0.00269662,-0.00192022,0.000653016,6579.48,-248.238,-350.048,-248.238,5743.29,-254.394,-350.048,-254.394,6217.61,10,44,45,104,139,181
4132.46,0.0209921,0.00427868,-0.00919241,0.00524625,-0.00919241,-0.0124306,-0.0113598,0.00524625,-0.0113598,0.00359839,-33096.3,-1169.56,723.091,-1169.56,-35387.6,-1451.3,723.091,-1451.3,-33170.2,10,14,19,55,143,182
4278.54,0.0218122,0.00578809,0.0124527,-0.00390446,0.0124527,-0.0142478,-0.00710906,-0.00390446,-0.00710906,0.00610701,-19029.9,1581.73,-542.151,1581.73,-21769,-891.447,-542.151,-891.447,-19018.4,10,55,64,152,156,183
4930.95,0.0251576,0.0178114,0.00269783,-0.00207904,0.00269783,-0.0202477,-0.00998091,-0.00207904,-0.00998091,0.0007862,-14533.8,316.089,-293.261,316.089,-19542.9,-1270.15,-293.261,-1270.15,-16725.1,10,5,6,55,152,184
6542.42,0.0331309,0.0168531,-0.0201269,9.79781e-05,-0.0201269,-0.0209761,-0.00775786,9.79781e-05,-0.00775786,-0.00129548,-43404.4,-2502.92,67.4312,-2502.92,-48680.7,-1016.87,67.4312,-1016.87,-45923.6,10,2,42,43,54,185
389.608,0.00199574,0.00118237,-0.000534664,-0.000511374,-0.000534664,-0.00129592,0.000950745,-0.000511374,0.000950745,-9.38393e-05,-1220.59,-69.2081,-66.8321,-69.2081,-1543.09,123.823,-66.8321,123.823,-1386.53,10,93,107,157,158,186
5471.44,0.0278436,0.00924859,0.0204288,0.00449755,0.0204288,-0.0136036,0.00302081,0.00449755,0.00302081,0.00137461,-25467.2,2601.26,608.998,2601.26,-28714.7,363.79,608.998,363.79,-26624.5,10,22,36,40,125,187
3847.37,0.0191281,0.000992448,0.00320461,-0.00158857,0.00320461,-0.0200836,-0.0104369,-0.00158857,-0.0104369,0.00163137,-116632,409.978,-225.612,409.978,-119501,-1363.29,-225.612,-1363.29,-116517,10,5,21,22,55,188
6020.39,0.0306597,0.0228334,0.0116172,-0.000126583,0.0116172,-0.0243941,-0.00352569,-0.000126583,-0.00352569,-0.000731417,-20890.7,1341.35,-26.5212,1341.35,-27244.8,-433.471,-26.5212,-433.471,-24052.4,10,23,64,155,156,189
4473.21,0.0225199,0.00256856,0.0101299,0.00412348,0.0101299,-0.0201132,-0.00641786,0.00412348,-0.00641786,0.00774465,-68007,1302.58,528.798,1302.58,-71096.5,-834.708,528.798,-834.708,-67353.7,10,5,21,22,116,190
5155.41,0.0264573,0.0127826,0.0149305,-0.00101732,0.0149305,-0.0178073,-0.00608447,-0.00101732,-0.00608447,0.00698656,7490.05,1850.14,-160.61,1850.14,3347.86,-776.426,-160.61,-776.426,6665.96,10,22,23,115,156,191
4417.62,0.0227221,0.0145973,0.0138961,-0.000112427,0.0138961,-0.0124805,0.00328606,-0.000112427,0.00328606,0.000910515,16441.8,1719.37,1.88167,1719.37,12766.9,415.474,1.88167,415.474,14591.5,10,39,119,120,123,192
4871.44,0.0246885,0.0124909,0.0145698,0.000476665,0.0145698,-0.0175146,-0.0042907,0.000476665,-0.0042907,-0.000661637,-40960.2,1831.18,40.8607,1831.18,-45066.6,-565.062,40.8607,-565.062,-42766,10,22,23,40,115,193
6222.12,0.0321676,0.0306171,0.00525364,-0.00456738,0.00525364,-0.0201945,-0.00751625,-0.00456738,-0.00751625,-0.00356115,38148.8,499.694,-655.255,499.694,31537.7,-946.868,-655.255,-946.868,33744.2,10,26,38,121,124,194
6027.14,0.0310476,0.0170994,0.0200898,0.0039125,0.0200898,-0.0171191,0.00203784,0.0039125,0.00203784,0.00463074,22643.3,2467.01,514.222,2467.01,17914.1,221.635,514.222,221.635,20873.3,10,40,115,124,125,195
4138.15,0.0210562,0.00423284,-0.00891796,0.00437356,-0.00891796,-0.0120425,-0.0120589,0.00437356,-0.0120589,0.00426079,-26646.6,-1133.53,607.058,-1133.53,-28874.3,-1543.57,607.058,-1543.57,-26622.9,10,19,43,55,143,196
4089.86,0.0210185,0.0157811,0.00118804,0.00389458,0.00118804,-0.0170357,-0.00627463,0.00389458,-0.00627463,0.00366689,13251.4,161.036,509.872,161.036,8982.08,-786.005,509.872,-786.005,11704.6,10,6,14,55,56,197
3753.97,0.0192058,0.00931679,-0.00711546,0.00784921,-0.00711546,-0.0147235,-0.000307645,0.00784921,-0.000307645,0.00500927,-4905.31,-875.112,1028.58,-875.112,-8095.63,-0.360922,1028.58,-0.360922,-5506.85,10,18,141,144,145,198
4313.72,0.0221826,0.0104435,-0.00791861,0.00686809,-0.00791861,-0.0142581,-0.00906224,0.00686809,-0.00906224,0.00666758,14966.2,-966.014,921.932,-966.014,11665.7,-1117.28,921.932,-1117.28,14475.2,10,14,15,18,145,199
5333.23,0.0271936,0.0177543,-0.00997002,0.00535131,-0.00997002,-0.0210004,-0.00693394,0.00535131,-0.00693394,0.00138645,-16840,-1181.41,735.204,-1181.41,-22030.7,-865.801,735.204,-865.801,-19012.9,10,1,20,42,143,200
7158.27,0.0363861,0.0122577,-0.0272385,-0.005687,-0.0272385,-0.0164858,0.00283501,-0.005687,0.00283501,0.00139207,-29425,-3446.66,-770.089,-3446.66,-33636.9,321.038,-770.089,321.038,-31074.2,10,36,43,54,101,201
4702.9,0.023931,0.00800328,-0.0089767,0.00584776,-0.0089767,-0.0132531,-0.01396,0.00584776,-0.01396,0.00192543,-25970.3,-1117.59,811.358,-1117.59,-28865,-1792.46,811.358,-1792.46,-26730.4,10,19,42,43,143,202
3494.04,0.0177804,0.0127951,-0.00521686,-8.7303e-06,-0.00521686,-0.0152372,-0.00366593,-8.7303e-06,-0.00366593,-0.00124373,-25164.7,-626.755,12.9089,-626.755,-28877.5,-479.717,12.9089,-479.717,-27022,10,1,41,42,102,203
6392.4,0.0327312,0.0212845,-0.0167858,0.00010276,-0.0167858,-0.0221547,-0.00692545,0.00010276,-0.00692545,0.00202779,-131.63,-2009.79,74.4455,-2009.79,-6046.8,-888.546,74.4455,-888.546,-2745.66,10,1,2,20,42,204
4382.99,0.0224347,0.0183413,-0.00756241,0.00300456,-0.00756241,-0.0108163,-0.00754341,0.00300456,-0.00754341,-0.00743915,-1911.86,-951.749,418.052,-951.749,-5745.5,-980.753,418.052,-980.753,-5264.16,10,6,14,17,145,205
2707.3,0.0139081,0.000138913,-0.000412166,-0.00183223,-0.000412166,-0.00919013,-0.0063913,-0.00183223,-0.0063913,0.0108637,9807.68,-58.8645,-236.165,-58.8645,8578.68,-797.973,-236.165,-797.973,11220.2,10,7,57,58,67,206
4178.7,0.0212037,0.00579638,0.0125262,-0.00402569,0.0125262,-0.0137418,-0.00731978,-0.00402569,-0.00731978,0.00275115,-37116.2,1600.5,-558.846,1600.5,-39802,-931.272,-558.846,-931.272,-37549.3,10,22,55,64,156,207
5281.82,0.0269533,0.0191914,-0.00889792,0.00108976,-0.00889792,-0.0203718,-0.00855218,0.00108976,-0.00855218,-0.000210047,-13521.4,-1045.05,173.447,-1045.05,-18815.2,-1080.93,173.447,-1080.93,-16082.8,10,19,20,42,143,208
1353.81,0.00693762,0.00363066,-0.00211518,-0.00212512,-0.00211518,-0.00592641,-0.000289074,-0.00212512,-0.000289074,0.00239748,660.296,-268.29,-277.288,-268.29,-587.376,-41.7848,-277.288,-41.7848,498.47,10,105,136,137,138,209
3887.12,0.019775,0.0137842,-0.00635666,0.000638351,-0.00635666,-0.0165406,-0.00474594,0.000638351,-0.00474594,-0.000987482,-26141.5,-764.759,103.131,-764.759,-30170.3,-618.277,103.131,-618.277,-28099,10,42,52,54,102,210
4557.69,0.0229885,0.00257494,-0.0105524,0.00247606,-0.0105524,-0.0133457,-0.0140261,0.00247606,-0.0140261,0.00211935,-60732,-1361.7,370.353,-1361.7,-62958,-1818.88,370.353,-1818.88,-60769.2,10,19,21,43,55,211
5943.24,0.0301319,0.0166437,-0.00150606,-0.00750428,-0.00150606,-0.0226079,-0.0152311,-0.00750428,-0.0152311,0.000970374,-39023.6,-117.508,-943.998,-117.508,-44227.3,-2001.48,-943.998,-2001.48,-41095.5,10,3,4,36,43,212
4943.58,0.0253749,0.0145698,0.0116123,-0.00323553,0.0116123,-0.0181707,-0.00717122,-0.00323553,-0.00717122,0.0055868,8424.41,1428.26,-445.629,1428.26,4056.25,-905.569,-445.629,-905.569,7216.37,10,22,115,116,156,213
6546.2,0.0335687,0.0202323,-0.0087731,0.00302838,-0.0087731,-0.0244373,-0.0153723,0.00302838,-0.0153723,0.00635627,5383.34,-1045.06,436.663,-1045.06,-517.497,-1963.61,436.663,-1963.61,3582.74,10,2,3,19,43,214
4282.03,0.0217278,0.00520853,0.0111654,-0.00494834,0.0111654,-0.0149694,-0.00855634,-0.00494834,-0.00855634,0.00459435,-37243.5,1421.19,-683.068,1421.19,-40004.3,-1082.3,-683.068,-1082.3,-37341,10,56,64,67,152,215
344.338,0.0017631,0.000182173,-0.00118183,-0.000792043,-0.00118183,-0.000685596,0.000301079,-0.000792043,0.000301079,4.02943e-05,-2989.74,-153.848,-103.17,-153.848,-3102.42,39.3242,-103.17,39.3242,-3007.79,10,92,93,107,158,216
3208.27,0.0160477,-0.000147918,0.00133957,0.00138293,0.00133957,-0.0120286,-0.0121722,0.00138293,-0.0121722,-0.00184945,-93337.8,182.737,182.591,182.737,-94957.3,-1606.33,182.591,-1606.33,-93527.2,10,4,21,36,43,217
4719.35,0.0239927,0.0140992,0.0131351,-0.000570071,0.0131351,-0.016951,-0.00421872,-0.000570071,-0.00421872,-0.0010173,-28666.4,1628.93,-98.9812,1628.93,-32886.9,-553.832,-98.9812,-553.832,-30718.4,10,23,40,115,124,218
1554.33,0.00797435,0.00527511,-0.00346815,-0.00276882,-0.00346815,-0.00499612,-0.00125328,-0.00276882,-0.00125328,0.000538276,5333,-444.772,-360.782,-444.772,3994.08,-168.554,-360.782,-168.554,4710.8,10,45,104,136,139,219
7225.28,0.0367133,0.0113464,-0.0272672,-0.00788131,-0.0272672,-0.0164429,0.00225453,-0.00788131,0.00225453,0.00207946,-30945.9,-3454.29,-1055.79,-3454.29,-35038.2,226.059,-1055.79,226.059,-32399.5,10,35,36,54,101,220
4663.85,0.0238633,0.0128275,0.0125859,-0.00710557,0.0125859,-0.0159395,-0.00203927,-0.00710557,-0.00203927,0.00307658,-4033.01,1561.2,-937.816,1561.2,-7912.93,-224.326,-937.816,-224.326,-5373.3,10,64,65,67,151,221
4119.6,0.0210756,0.0120688,0.0108445,-0.00738449,0.0108445,-0.0124242,0.00331802,-0.00738449,0.00331802,4.87437e-05,-4668.11,1353.56,-947.878,1353.56,-7961.37,463.756,-947.878,463.756,-6310.87,10,59,65,67,153,222
6225.58,0.0316967,0.0223648,0.0128422,-0.00370289,0.0128422,-0.0253146,-0.00225941,-0.00370289,-0.00225941,0.000605147,-21923.8,1502.76,-499.34,1502.76,-28347.7,-263.885,-499.34,-263.885,-24859.9,10,23,64,114,155,223
6587.52,0.0339162,0.0244045,-0.0156762,-0.00476899,-0.0156762,-0.021907,-0.00760438,-0.00476899,-0.00760438,0.00207533,21484.7,-1850.03,-564.466,-1850.03,15235.9,-977.971,-564.466,-977.971,18490,10,2,19,20,42,224
6164,0.0314087,0.0213415,0.0130211,-0.00407443,0.0130211,-0.0252014,-0.0026611,-0.00407443,-0.0026611,0.00197795,-18913,1530.93,-552.141,1530.93,-25182.6,-316.552,-552.141,-316.552,-21530.4,10,64,114,150,155,225
3772.88,0.0192423,0.0150835,0.00528557,-0.000518008,0.00528557,-0.0153985,-0.0040164,-0.000518008,-0.0040164,-0.00195285,-16234.1,623.387,-83.4961,623.387,-20264.8,-519.719,-83.4961,-519.719,-18478.7,10,23,38,114,124,226
4815.95,0.0245053,0.0179703,0.0072823,-0.00238399,0.0072823,-0.0215387,0.000176635,-0.00238399,0.000176635,0.000263793,-24795.4,843.729,-311.562,843.729,-30047.8,37.4573,-311.562,37.4573,-27154.4,10,23,24,64,114,227
4816.96,0.0248857,0.0242216,0.00270137,0.00055307,0.00270137,-0.0181832,-0.00196321,0.00055307,-0.00196321,-0.000208722,34652,232.234,58.7547,232.234,29155.3,-255.901,58.7547,-255.901,31486.5,10,24,25,38,114,228
6894.56,0.0356364,0.0341737,-0.00526593,0.00369912,-0.00526593,-0.0238028,-0.00684014,0.00369912,-0.00684014,-0.00328988,37773.7,-453.619,544.001,-453.619,30231,-859.926,544.001,-859.926,32933.6,10,50,52,100,102,229
1527.91,0.00784605,0.0066022,-0.00114483,-0.00234098,-0.00114483,-0.00591066,-0.000447716,-0.00234098,-0.000447716,0.000675563,9062.77,-138.505,-302.98,-138.505,7434.82,-63.9342,-302.98,-63.9342,8289.25,10,45,104,105,136,230
317.802,0.00162913,0,0,-0.000951706,0,0,0.00103251,-0.000951706,0.00103251,0.00023701,1500.66,-0.255586,-123.798,-0.255586,1500.7,134.309,-123.798,134.309,1530.73,10,69,70,110,130,231
1252.9,0.00641779,0.00263194,0.00282296,0.00075837,0.00282296,-0.00511377,0.00176616,0.00075837,0.00176616,0.00232073,-1094.11,362.816,100.258,362.816,-2108.7,228.374,100.258,228.374,-1136.46,10,77,126,127,130,232
258.619,0.00132593,0,0,0.000446693,0,0,0.00104187,0.000446693,0.00104187,0.000317156,2025.23,0.121033,58.1028,0.121033,2025.46,135.519,58.1028,135.519,2066.08,10,83,134,135,137,233
1230.65,0.00630156,0.00318933,-0.0022398,0.00309487,-0.0022398,-0.00028949,-0.00216904,0.00309487,-0.00216904,-0.0032799,-2423.71,-289.965,407.593,-289.965,-2871.39,-285.766,407.593,-285.766,-3254.66,10,47,91,97,138,234
1489.96,0.00760058,0.00228288,-0.00230473,0.00300976,-0.00230473,-0.00304016,0.00459793,0.00300976,0.00459793,-0.00186009,-17135.2,-298.134,391.363,-298.134,-17833.4,602.448,391.363,602.448,-17682.9,10,84,104,105,136,235
2346.93,0.0120139,0.0086589,-0.000761669,-0.0037986,-0.000761669,-0.00990615,-0.00252043,-0.0037986,-0.00252043,0.000849822,-2841.83,-124.418,-499.972,-124.418,-5255.3,-317.931,-499.972,-317.931,-3848.98,10,24,25,66,150,236
4269.5,0.0217574,0.0130096,0.00409224,-0.00120751,0.00409224,-0.0213007,-0.00319746,-0.00120751,-0.00319746,0.00569996,-19661.5,481.477,-161.432,481.477,-24182.5,-386.95,-161.432,-386.95,-20627.5,10,6,7,67,154,237
2917.89,0.0149397,0.0108252,0.00085461,0.00658133,0.00085461,-0.00719475,-0.00562942,0.00658133,-0.00562942,-0.0037922,-1796.7,94.978,851.328,94.978,-4144.24,-739.034,851.328,-739.034,-3706.01,10,7,59,149,154,238
1585.86,0.00797008,3.68409e-06,0.000157307,0.000157483,0.000157307,-0.00392222,-0.00576017,0.000157483,-0.00576017,-0.0075876,-75008.9,20.6999,20.5693,20.6999,-75532.5,-764.992,20.5693,-764.992,-76013.1,10,7,8,58,149,239
2638.6,0.013547,0.000118917,-0.000306437,-0.0015926,-0.000306437,-0.00905289,-0.00637137,-0.0015926,-0.00637137,0.0103708,7483.41,-44.4022,-205.641,-44.4022,6274.28,-797.597,-205.641,-797.597,8834.46,10,7,58,59,67,240
5031.47,0.0258333,0.0231393,0.000603964,5.65231e-05,0.000603964,-0.0215755,0.000535495,5.65231e-05,0.000535495,0.000617086,10561.8,105.954,19.4011,105.954,4757.43,64.1134,19.4011,64.1134,7638.8,10,34,89,120,123,241
392.296,0.00200183,1.26311e-06,0.000647259,0.000645497,0.000647259,-0.00153223,-0.00125221,0.000645497,-0.00125221,-0.000970061,-16158.4,84.3024,84.167,84.3024,-16359,-163.726,84.167,-163.726,-16285.7,10,61,62,147,150,242
3722.61,0.018946,0.0126064,-0.00615322,0.00247852,-0.00615322,-0.0168631,-0.0023245,0.00247852,-0.0023245,0.000713112,-24690.8,-741.52,334.38,-741.52,-28602.4,-291.723,334.38,-291.723,-26269.8,10,1,16,41,143,243
1778.07,0.00910704,0.00696782,0.000423303,0.00247312,0.000423303,-0.00765825,-0.00147275,0.00247312,-0.00147275,0.000535652,-898.682,70.1225,324.421,70.1225,-2800.54,-186.561,324.421,-186.561,-1732.04,10,0,16,41,146,244
3960.16,0.0204365,0.0197798,-0.00217607,0.00157576,-0.00217607,-0.014405,-0.00323326,0.00157576,-0.00323326,-0.000513493,29794.4,-204.138,220.343,-204.138,25361.8,-411.813,220.343,-411.813,27169,10,0,1,41,50,245
3901.96,0.0199118,0.0144001,-0.00591777,0.00324348,-0.00591777,-0.0170019,-0.00198749,0.00324348,-0.00198749,0.000709448,-14161,-702.124,431.915,-702.124,-18314.3,-243.575,431.915,-243.575,-15971.3,10,1,41,42,143,246
6814.38,0.0353136,0.0339489,-0.00499661,0.00325708,-0.00499661,-0.0240565,-0.00675641,0.00325708,-0.00675641,-0.00127658,47778.6,-418.133,479.1,-418.133,40255.1,-848.696,479.1,-848.696,43236.1,10,41,50,52,102,247
1458.8,0.00748865,0.00500475,-0.00185811,0.0027895,-0.00185811,-0.000917557,-0.00371757,0.0027895,-0.00371757,-0.00292749,7569.27,-235.617,369.285,-235.617,6797.69,-483.736,369.285,-483.736,6547.93,10,50,51,52,100,248
4053.23,0.0206337,0.00438985,-0.00936728,0.00478458,-0.00936728,-0.0129024,-0.0101985,0.00478458,-0.0101985,0.00521611,-24818.4,-1190.49,658.265,-1190.49,-27175.6,-1296.09,658.265,-1296.09,-24704.8,10,14,56,143,145,249
5622.76,0.0288652,0.0205859,-0.00952566,0.00337657,-0.00952566,-0.0213684,-0.0088638,0.00337657,-0.0088638,0.0031374,9746.79,-1102.35,473.626,-1102.35,4154.1,-1093.93,473.626,-1093.93,7448.68,10,14,19,20,143,250
5548.46,0.0283219,0.0146516,-0.0116655,0.00317996,-0.0116655,-0.02122,-0.0104009,0.00317996,-0.0104009,0.00546738,-13023.3,-1414.98,461.795,-1414.98,-17865.7,-1308.5,461.795,-1308.5,-14254.3,10,14,15,20,143,251
4192.24,0.0214199,0.0133146,-0.00714516,0.00721926,-0.00714516,-0.0166696,-0.00329962,0.00721926,-0.00329962,0.00230534,-9451,-852.231,955.139,-852.231,-13441,-384.336,955.139,-384.336,-10920.5,10,15,16,18,144,252
4282.43,0.0217294,0.00520564,0.0111686,-0.00494365,0.0111686,-0.0149711,-0.00856024,-0.00494365,-0.00856024,0.00458764,-37317.6,1421.64,-682.481,1421.64,-40078.5,-1082.84,-682.481,-1082.84,-37415.7,10,55,56,64,152,253
6282.92,0.0323092,0.0235514,0.0117098,-0.00238766,0.0117098,-0.0255558,-0.00471445,-0.00238766,-0.00471445,0.00570368,16729.7,1324.17,-333.098,1324.17,10180.1,-556.141,-333.098,-556.141,14338.4,10,64,152,155,156,254
2925.63,0.0150816,0.0146926,0.000575566,-0.0020376,0.000575566,-0.006662,-0.0054925,-0.0020376,-0.0054925,-0.00409699,25006.9,107.863,-236.826,107.863,22247.2,-712.609,-236.826,-712.609,22568.3,10,10,18,141,145,255
1639.59,0.00838367,0.00164961,-0.00500363,0.00339703,-0.00500363,-0.00499582,-0.000432206,0.00339703,-0.000432206,0.00216531,-8068.01,-645.995,445.534,-645.995,-8952.28,-48.8456,445.534,-48.8456,-8012.94,10,17,58,142,145,256
442.257,0.00226555,0.000839749,-0.00138276,-5.29501e-05,-0.00138276,-0.0009248,0.00107496,-5.29501e-05,0.00107496,-9.01038e-05,-1068.84,-179.845,-6.9088,-179.845,-1298.12,140.174,-6.9088,140.174,-1189.86,10,82,107,137,157,257
5495.25,0.0282091,0.0223298,0.0116494,-0.000344122,0.0116494,-0.0205316,-0.00128345,-0.000344122,-0.00128345,0.000459518,9786.95,1358.2,-45.667,1358.2,4060.08,-137.438,-45.667,-137.438,6869.22,10,23,115,155,156,258
5962.03,0.0305079,0.0170083,0.0186026,0.00439015,0.0186026,-0.019179,0.000701656,0.00439015,0.000701656,0.00272664,-3142.22,2272.9,571.692,2272.9,-8152.37,42.3478,571.692,42.3478,-5162.08,10,40,122,123,125,259
6398.97,0.0326833,0.0221987,-0.0082126,0.000663088,-0.0082126,-0.0292694,-0.00598293,0.000663088,-0.00598293,0.00674451,-9742.55,-1013.67,98.8906,-1013.67,-16495.6,-780.174,98.8906,-780.174,-11775.3,10,36,90,116,125,260
4155.83,0.0213981,0.0169441,-0.000288443,-0.00327012,-0.000288443,-0.0170359,-0.0062751,-0.00327012,-0.0062751,0.00366711,20725,-52.7113,-429.43,-52.7113,16312,-784.097,-429.43,-784.097,19027.2,10,6,55,56,152,261
1283.18,0.0065862,0.0020794,0.00206712,-0.00196015,0.00206712,0.000886031,0.00449791,-0.00196015,0.00449791,-0.00190748,6660.5,265.748,-252.425,265.748,6504.39,584.803,-252.425,584.803,6136.06,10,78,108,109,128,262
972.575,0.00499714,0.00348932,-0.000717121,0.00126843,-0.000717121,-0.00173485,0.00307611,0.00126843,0.00307611,-0.000102434,10844.7,-89.754,162.02,-89.754,10165.6,400.075,162.02,400.075,10375.2,10,83,84,105,136,263
2388.01,0.0122517,0.0099761,-0.00108616,-0.00356923,-0.00108616,-0.00860947,-0.00345016,-0.00356923,-0.00345016,-0.000411088,5996.89,-115.403,-454.383,-115.403,3575.91,-456.199,-454.383,-456.199,4634.62,10,45,46,51,96,264
885.837,0.00453985,0.00258116,-0.00144162,0.000810028,-0.00144162,-0.00222979,0.00262278,0.000810028,0.00262278,-0.000241332,845.269,-184.321,103.265,-184.321,217.483,342.529,103.265,342.529,474.548,10,83,105,136,137,265
852.732,0.00437169,0,0,-0.00109812,0,0,0.00361871,-0.00109812,0.00361871,0.000313856,1835.58,-1.03349,-142.839,-1.03349,1838.67,470.706,-142.839,470.706,1872.36,10,70,71,78,109,266
948.308,0.00487082,0.00338576,0.000631584,-0.0014492,0.000631584,-0.00182324,0.0028713,-0.0014492,0.0028713,-0.000113437,9537.91,78.8118,-185.762,78.8118,8860.66,373.681,-185.762,373.681,9080.02,10,77,109,110,127,267
676.841,0.00346269,-0.00213758,-0.00251726,-1.0518e-05,-0.00251726,0.000944556,0.000218497,-1.0518e-05,0.000218497,0.000240135,-6535.82,-326.853,-1.15897,-326.853,-6130.38,28.535,-1.15897,28.535,-6224.09,10,82,131,137,157,268
2339.84,0.011999,0.00971169,0.0010077,0.00337771,0.0010077,-0.00848891,-0.0035054,0.00337771,-0.0035054,-0.000554989,4169.34,106.292,429.747,106.292,1797.86,-462.993,429.747,-462.993,2822.83,10,30,31,37,118,269
647.469,0.00331605,0.000803516,0.00106491,-0.000650368,0.00106491,-0.00229536,0.00174278,-0.000650368,0.00174278,0.00119219,-1931.8,137.53,-84.4765,137.53,-2335.98,227.575,-84.4765,227.575,-1882.55,10,70,77,79,130,270
5698.43,0.0294234,0.0189699,0.0151784,-0.00101693,0.0151784,-0.0186837,-0.00731622,-0.00101693,-0.00731622,0.00559603,31876.7,1891.98,-152.627,1891.98,26895.7,-919.48,-152.627,-919.48,30106.5,10,5,22,116,156,271
4193.48,0.021323,0.0103938,-0.0089863,0.00742838,-0.0089863,-0.0166869,-0.00341698,0.00742838,-0.00341698,0.00234467,-28499.1,-1110.91,990.634,-1110.91,-32136.5,-402.923,990.634,-402.923,-29590.6,10,15,18,144,145,272
3147.9,0.0161518,0.0134013,-0.00425909,0.00147366,-0.00425909,-0.0105163,-0.00538812,0.00147366,-0.00538812,-0.0017058,6812.51,-506.179,210.303,-506.179,3674.69,-697.781,210.303,-697.781,4840.11,10,10,17,18,145,273
4103.09,0.021017,0.0125664,0.0104717,-0.00754168,0.0104717,-0.0121934,0.00338883,-0.00754168,0.00338883,5.28886e-05,141.406,1303.05,-966.301,1303.05,-3179,472.437,-966.301,472.437,-1562.87,10,59,60,65,153,274
4746.08,0.0242153,0.0166635,0.0116217,-0.00629173,0.0116217,-0.0156969,-4.34101e-05,-0.00629173,-4.34101e-05,-0.00268048,-14477.4,1423.43,-814.44,1423.43,-18839.5,29.2523,-814.44,29.2523,-17086.4,10,65,150,151,153,275
5012.63,0.0259551,0.0252821,0.00270391,-0.00106168,0.00270391,-0.019207,-0.000928424,-0.00106168,-0.000928424,0.00119636,43506,220.662,-143.751,220.662,37752.8,-113.066,-143.751,-113.066,40393.4,10,24,25,114,150,276
1801.19,0.00919748,0.00535042,0.00057004,-0.00287737,0.00057004,-0.00863082,-0.0017541,-0.00287737,-0.0017541,0.00130701,-12844.1,60.2725,-378.053,60.2725,-14672.1,-221.585,-378.053,-221.585,-13369.5,10,64,65,66,150,277
1657.35,0.0084612,0.000694176,-0.00527371,0.0033197,-0.00527371,-0.0050433,-0.00040905,0.0033197,-0.00040905,0.00222925,-14259.5,-683.1,436.696,-683.1,-15027.1,-45.6452,436.696,-45.6452,-14071.8,10,10,17,142,145,278
4728.65,0.0240001,0.0134755,0.0131947,-0.00663645,0.0131947,-0.0157196,-0.000140513,-0.00663645,-0.000140513,-0.002623,-35164.4,1652.4,-868.915,1652.4,-39140.7,16.4564,-868.915,16.4564,-37363.6,10,65,67,151,153,279
4052.69,0.0206311,0.00439068,-0.00936577,0.00478569,-0.00936577,-0.0128997,-0.0101965,0.00478569,-0.0101965,0.00521701,-24788.2,-1190.28,658.401,-1190.28,-27145.2,-1295.82,658.401,-1295.82,-24674.6,10,14,55,56,143,280
4258.91,0.0216764,0.0151449,0.00770073,-0.00219193,0.00770073,-0.0175262,-0.0046288,-0.00219193,-0.0046288,-0.000970813,-24197.9,947.031,-306.786,947.031,-28544.9,-574.711,-306.786,-574.711,-26320.7,10,67,152,153,154,281
1441.79,0.0073904,0.00335088,0.000366863,-0.00529596,0.000366863,-0.00122414,-0.00216895,-0.00529596,-0.00216895,-0.00185793,1626.28,42.8228,-693.991,42.8228,1039.48,-282.891,-693.991,-282.891,972.245,10,28,29,74,117,282
1411.9,0.0072333,0.00393251,0.00216441,-0.0034209,0.00216441,-0.000148577,-0.00278045,-0.0034209,-0.00278045,-0.00384176,-372.52,277.626,-451.661,277.626,-902.948,-364.22,-451.661,-364.22,-1373.44,10,27,30,117,121,283
721.692,0.00370842,0.00230044,-0.000340267,0.00088061,-0.000340267,-0.00261638,-0.00134899,0.00088061,-0.00134899,0.00200501,11035.9,-45.9091,113.758,-45.9091,10398.7,-175.387,113.758,-175.387,10998.2,10,75,79,80,126,284
1348.43,0.00691944,0.0049969,0.00139046,-0.00256009,0.00139046,-0.000852246,-0.00308264,-0.00256009,-0.00308264,-0.00322835,6081.28,175.974,-339.13,175.974,5320.71,-401.294,-339.13,-401.294,5020.27,10,27,30,37,121,285
510.004,0.00261468,0.0001508,0.00130093,0.000203227,0.00130093,-0.00171673,-0.000411311,0.000203227,-0.000411311,0.0018737,1935.1,169.058,25.9648,169.058,1691.67,-52.8503,25.9648,-52.8503,2159.09,10,75,79,126,130,286
1331.05,0.00682047,0.00377255,-0.00201067,0.00319995,-0.00201067,-9.88423e-05,-0.00263575,0.00319995,-0.00263575,-0.00361637,405.007,-258.01,422.143,-258.01,-98.1073,-345.05,422.143,-345.05,-546.794,10,46,49,97,100,287
4757.13,0.0244864,0.0154734,-0.0154064,0.000352692,-0.0154064,-0.0127236,0.00365278,0.000352692,0.00365278,0.000843489,19403.9,-1902.9,24.3344,-1902.9,15554.2,464.216,24.3344,464.216,17417.6,10,53,94,95,98,288
1313.25,0.00674197,0.00480734,0.00208684,0.000604136,0.00208684,-0.00479191,-0.00242552,0.000604136,-0.00242552,0.00117111,7816.52,278.62,80.7434,278.62,6577.02,-314.735,80.7434,-314.735,7347.5,10,92,106,137,138,289
2083.23,0.0106859,0.00608051,-0.00362643,0.00243266,-0.00362643,-0.00887834,0.00153211,0.00243266,0.00153211,0.00358623,4759.57,-457.223,312.52,-457.223,2798.89,197.135,312.52,197.135,4427.22,10,44,95,103,104,290
6328.22,0.0322014,0.0244022,-0.00517214,-0.00013684,-0.00517214,-0.0296531,-0.00334983,-0.00013684,-0.00334983,0.00263183,-23892.5,-663.519,-33.4698,-663.519,-30975.7,-457.767,-33.4698,-457.767,-26751.9,10,35,89,90,98,291
1260.82,0.00646918,0.00459638,-0.00132951,0.00244547,-0.00132951,-0.000704203,-0.00288151,0.00244547,-0.00288151,-0.00304771,5625.58,-168.734,323.427,-168.734,4936.35,-375.19,323.427,-375.19,4639.21,10,46,49,51,100,292
3582.98,0.0183355,0.0154142,-0.00363089,-0.000359952,-0.00363089,-0.0143658,-0.00399404,-0.000359952,-0.00399404,-0.00134623,-3167.83,-410.907,-30.0056,-410.907,-7075.98,-521.027,-30.0056,-521.027,-5364.56,10,1,41,50,102,293
6409.25,0.0330011,0.0150801,-0.0178192,-0.0035335,-0.0178192,-0.0198466,-0.0116693,-0.0035335,-0.0116693,0.00931977,20607.8,-2178.65,-394.949,-2178.65,15830.4,-1516.06,-394.949,-1516.06,19754.8,10,2,19,42,43,294
6667.73,0.0341449,0.0227116,-0.0185176,0.00200433,-0.0185176,-0.0204298,-0.00779567,0.00200433,-0.00779567,-0.000923815,507.779,-2232.46,317.743,-2232.46,-5395.65,-1000.83,317.743,-1000.83,-2691.57,10,1,2,42,102,295
3529.39,0.0182833,0.0147129,-0.0034578,-0.00804674,-0.0034578,-0.0114987,-0.00077734,-0.00804674,-0.00077734,0.00382303,43883.6,-497.193,-1037.61,-497.193,40540.5,-71.6565,-1037.61,-71.6565,42507.9,10,62,63,66,150,296
397.625,0.00203807,0.00172122,0.000548115,-3.33244e-05,0.000548115,-0.00094287,-0.000839609,-3.33244e-05,-0.000839609,-0.000612544,1251.03,71.8846,-3.84587,71.8846,904.992,-109.152,-3.84587,-109.152,947.594,10,11,16,140,144,297
7653.5,0.0395716,0.0202276,-0.026464,-0.00548736,-0.026464,-0.0205334,0.00248325,-0.00548736,0.00248325,0.00805324,37398.6,-3207.53,-724.87,-3207.53,31643.7,254.4,-724.87,254.4,35570.7,10,2,54,101,102,298
521.368,0.00267122,0.00211453,-0.000733984,-0.000138989,-0.000733984,-0.00121599,-0.00115825,-0.000138989,-0.00115825,-0.000977839,-305.365,-96.4798,-18.969,-96.4798,-737.885,-150.551,-18.969,-150.551,-707.415,10,61,65,147,150,299
5070.3,0.0259707,0.0199789,0.0119701,-0.000619879,0.0119701,-0.0172308,-0.00350409,-0.000619879,-0.00350409,-0.00198944,1019.69,1440.24,-100.868,1440.24,-3967.71,-451.261,-100.868,-451.261,-1907.6,10,23,114,115,124,300
1808.01,0.0092515,0.00616649,-0.00287224,0.00151143,-0.00287224,-0.00207648,0.00457991,0.00151143,0.00457991,-0.00481712,-4716.04,-374.22,192.512,-374.22,-5784.15,597.079,192.512,597.079,-6151.45,10,73,85,87,103,301
2150.51,0.0110338,0.00716386,-0.00030429,-0.0045478,-0.00030429,-0.00900867,-0.000740283,-0.0045478,-0.000740283,0.00279136,5840.96,-59.486,-591.86,-59.486,3741.25,-83.6224,-591.86,-83.6224,5276.5,10,61,65,66,150,302
200.701,0.00102612,0,-0.000418378,0,-0.000418378,-0.00135061,-8.12856e-05,0,-8.12856e-05,0,-8711.92,-54.4802,0.0088689,-54.4802,-8888.12,-10.5848,0.0088689,-10.5848,-8711.96,10,92,93,132,158,303
258.619,0.00132593,0,0,0.000446693,0,0,0.00104187,0.000446693,0.00104187,0.000317156,2025.23,0.121033,58.1028,0.121033,2025.46,135.519,58.1028,135.519,2066.08,10,82,83,135,137,304
317.802,0.00162913,0,0,-0.000951706,0,0,0.00103251,-0.000951706,0.00103251,0.00023701,1500.66,-0.255586,-123.798,-0.255586,1500.7,134.309,-123.798,134.309,1530.73,10,68,111,112,130,305
6409.45,0.0330972,0.0313925,0.00517918,-0.00425896,0.00517918,-0.0206104,-0.00822715,-0.00425896,-0.00822715,-0.00453578,33719.9,481.504,-625.01,481.504,26947.5,-1041.82,-625.01,-1041.82,29085.4,10,26,38,114,124,306
2072.5,0.0106091,0.00782042,0.00232044,0.00123151,0.00232044,-0.00935887,-0.00160553,0.00123151,-0.00160553,0.0010914,-2953.7,282.023,157.47,282.023,-5201.59,-211.514,157.47,-211.514,-3836.26,10,30,31,118,127,307
902.986,0.00459775,1.01795e-06,-0.00234273,-0.00234091,-0.00234273,-0.00219571,-0.00189712,-0.00234091,-0.00189712,-0.0015896,-24604.8,-305.382,-305.511,-305.382,-24896.6,-249.853,-305.511,-249.853,-24817.5,10,9,17,58,142,308
4725.47,0.0240615,0.0109563,0.0128222,-0.00432253,0.0128222,-0.0151235,-0.00879767,-0.00432253,-0.00879767,0.00124244,-23030.2,1607.03,-605.695,1607.03,-26584.1,-1123.32,-605.695,-1123.32,-24334.2,10,22,23,64,156,309
1379.32,0.00704852,0.00441695,-0.000554194,0.00190766,-0.000554194,-0.0067263,-0.00104294,0.00190766,-0.00104294,0.000730201,-10082.9,-63.6293,250.086,-63.6293,-11538.5,-132.352,250.086,-132.352,-10563.3,10,16,41,143,146,310
2933.48,0.0150787,0.0119282,-0.00212955,-0.00528728,-0.00212955,-0.0109908,-0.00254983,-0.00528728,-0.00254983,0.00127093,13544.3,-314.96,-693.063,-314.96,10587.6,-314.429,-693.063,-314.429,12181.8,10,25,63,66,150,311
0.46868,2.40164e-06,1.65148e-06,-1.22211e-06,1.44465e-07,-1.22211e-06,-1.23826e-06,-8.07086e-07,1.44465e-07,-8.07086e-07,6.72815e-07,7.20882,-0.158996,0.0187948,-0.158996,6.83286,-0.105002,0.0187948,-0.105002,7.08149,10,11,140,141,144,312
1172.79,0.00601262,0.00303978,-0.00160686,0.0030121,-0.00160686,0.000808483,-0.00210003,0.0030121,-0.00210003,-0.00349919,2288.3,-206.572,396.094,-206.572,1999.88,-275.365,396.094,-275.365,1446.32,10,46,47,49,97,313
4579.14,0.0236318,0.0227701,0.00274961,0.000413443,0.00274961,-0.0174912,-0.00179307,0.000413443,-0.00179307,-0.00018266,30338.5,249.907,42.593,249.907,25113.1,-233.48,42.593,-233.48,27360.8,10,25,26,38,114,314
4230.52,0.0217578,0.0150559,0.0099403,-0.00762538,0.0099403,-0.0122044,0.00341866,-0.00762538,0.00341866,5.45517e-05,16125.2,1221.47,-970.145,1221.47,12495.7,474.693,-970.145,474.693,14105.6,10,60,65,147,153,315
317.802,0.00162913,0,0,-0.000951706,0,0,0.00103251,-0.000951706,0.00103251,0.00023701,1500.66,-0.255586,-123.798,-0.255586,1500.7,134.309,-123.798,134.309,1530.73,10,69,110,111,130,316
1107.73,0.00568445,0.00327123,0.00185646,0.00259266,0.00185646,-0.00300143,-0.00203577,0.00259266,-0.00203577,0.000641185,5978.91,234.819,336.437,234.819,5161.5,-269.172,336.437,-269.172,5630.12,10,31,32,78,128,317
867.309,0.00444308,0.00124742,-0.00122697,0.00172139,-0.00122697,-0.00188136,-0.00276918,0.00172139,-0.00276918,0.000498106,-904.908,-159.955,223.669,-159.955,-1310.81,-360.857,223.669,-360.857,-1002.18,10,74,80,117,126,318
587.206,0.00301324,0.00294637,-0.000642348,-1.44686e-05,-0.000642348,-0.00204594,-0.000293191,-1.44686e-05,-0.000293191,-4.01036e-05,5833.19,-85.109,-2.11495,-85.109,5185.46,-38.0727,-2.11495,-38.0727,5445.62,10,68,69,76,130,319
3199.39,0.0165468,0.0128209,-0.00270998,-0.00743694,-0.00270998,-0.0108091,-0.000448669,-0.00743694,-0.000448669,0.00395593,37364.8,-392.254,-959.189,-392.254,34340.2,-33.0612,-959.189,-33.0612,36239.8,10,61,62,66,150,320
1615.49,0.00828677,0.00706169,-0.00149443,-0.002694,-0.00149443,-0.00581454,-0.000355915,-0.002694,-0.000355915,-0.000520115,4936.57,-184.726,-348.742,-184.726,3258.47,-50.7402,-348.742,-50.7402,3946.44,10,46,105,136,138,321
352.625,0.0018116,0.00106075,-0.000805993,2.11865e-06,-0.000805993,0.000568044,0.00121926,2.11865e-06,0.00121926,-7.64092e-05,10098,-104.409,0.183767,-104.409,10034.4,158.301,0.183767,158.301,9950.34,10,82,83,107,137,322
1813.91,0.00926077,0.00544424,0.000542502,-0.00281845,0.000542502,-0.00869073,-0.00188092,-0.00281845,-0.00188092,0.00116759,-13523.8,56.4134,-370.645,56.4134,-15372.2,-238.366,-370.645,-238.366,-14079.5,10,24,64,66,150,323
1851.95,0.00943976,-1.21966e-05,-0.000176428,0.000275606,-0.000176428,-0.0015657,0.00812225,0.000275606,0.00812225,-0.00146073,-20461.5,-23.0662,36.3292,-23.0662,-20652.5,1062.32,36.3292,1062.32,-20663.1,10,73,86,87,108,324
902.996,0.00459781,8.94174e-07,-0.00234278,-0.00234081,-0.00234278,-0.00219505,-0.0018975,-0.00234081,-0.0018975,-0.00158942,-24600.2,-305.389,-305.498,-305.389,-24891.9,-249.901,-305.498,-249.901,-24812.9,10,8,9,17,58,325
903.019,0.00459793,2.27885e-06,-0.00234261,-0.00234095,-0.00234261,-0.00219571,-0.00189712,-0.00234095,-0.00189712,-0.0015896,-24596.5,-305.365,-305.516,-305.365,-24888.5,-249.852,-305.516,-249.852,-24809.4,10,9,10,17,142,326
5933.59,0.0304141,0.0213499,0.01319,-0.00415409,0.01319,-0.0224015,-0.00454863,-0.00415409,-0.00454863,0.00261826,3936.41,1554.87,-563.767,1554.87,-1936.38,-565.856,-563.767,-565.856,1416.34,10,64,150,151,155,327
2717.59,0.0139714,0.00932127,-0.00554245,-0.00186967,-0.00554245,-0.0104278,-0.00308985,-0.00186967,-0.00308985,0.00337029,13874.6,-711.393,-244.333,-711.393,11303.2,-392.485,-244.333,-392.485,13105.5,10,6,7,17,145,328
1910.89,0.0096093,3.98382e-06,0.00354275,0.00353818,0.00354275,-0.00726124,-0.00556522,0.00353818,-0.00556522,-0.00385213,-72714.4,462.792,465.378,462.792,-73685,-741.885,465.378,-741.885,-73238.1,10,59,148,149,154,329
2707.38,0.0139024,-0.000123041,0.00116042,0.0013871,0.00116042,-0.00918991,-0.00639114,0.0013871,-0.00639114,0.0108634,8088.79,154.769,176.038,154.769,6893.29,-798.302,176.038,-798.302,9535.86,10,7,57,58,145,330
3834.35,0.0195884,-0.00110864,-0.00147623,0.0118176,-0.00147623,-0.00989882,-0.00700465,0.0118176,-0.00700465,0.00975051,-11900.1,-195.901,1561.49,-195.901,-13095.3,-898.567,1561.49,-898.567,-10553.8,10,59,148,153,154,331
4604.38,0.023386,0.015707,0.00756122,-0.00195293,0.00756122,-0.0213712,-0.00032708,-0.00195293,-0.00032708,0.00118765,-32151.5,892.216,-259.989,892.216,-37094.8,-32.0868,-259.989,-32.0868,-34094.9,10,24,64,114,150,332
1636.09,0.00839033,0.00580209,9.64221e-05,0.00318718,9.64221e-05,-0.00697268,-0.000141867,0.00318718,-0.000141867,0.00174619,3776.11,24.5414,414.454,24.5414,2115.93,-11.8476,414.454,-11.8476,3249.49,10,16,140,144,146,333
295.479,0.00150958,1.12882e-06,-0.000525991,-0.000525025,-0.000525991,-0.00118536,-0.000897098,-0.000525025,-0.000897098,-0.000607673,-11568.5,-68.4741,-68.4271,-68.4741,-11723.4,-117.156,-68.4271,-117.156,-11648.2,10,11,12,16,140,334
2155.44,0.010842,3.22682e-06,-0.00480931,-0.00480563,-0.00480931,-0.00694679,-0.00545722,-0.00480563,-0.00545722,-0.00396592,-71662.5,-628.453,-631.759,-628.453,-72599.9,-729.993,-631.759,-729.993,-72209.2,10,10,11,18,141,335
0.885762,4.53888e-06,2.43131e-06,-2.21312e-06,1.15503e-06,-2.21312e-06,-2.61593e-06,-1.27137e-06,1.15503e-06,-1.27137e-06,1.83173e-06,10.9235,-0.287926,0.15027,-0.287926,10.2668,-0.165405,0.15027,-0.165405,10.8455,10,10,141,142,145,336
2439.7,0.01259,0.0103725,0.00194296,0.0051404,0.00194296,-0.00838073,0.000174726,0.0051404,0.000174726,0.00247726,28544.1,276.972,663.467,276.972,26132.9,35.4791,663.467,35.4791,27531.2,10,12,16,140,146,337
0.462969,2.37237e-06,9.41194e-07,1.23801e-06,-1.51484e-07,1.23801e-06,-1.05287e-06,-1.13712e-06,-1.51484e-07,-1.13712e-06,1.0096e-06,5.90501,0.161066,-0.019708,0.161066,5.64559,-0.147939,-0.019708,-0.147939,5.91391,10,60,61,65,147,338
709.343,0.00362933,-0.00215869,-0.00261489,0.000114907,-0.00261489,0.00126554,0.000173121,0.000114907,0.000173121,1.30379e-06,-6156.8,-339.352,15.2315,-339.352,-5706.5,22.4791,15.2315,22.4791,-5873.33,10,131,132,137,157,339
3526.43,0.0181558,0.0128919,0.00390764,-0.00155535,0.00390764,-0.0159623,-0.000621056,-0.00155535,-0.000621056,0.00640392,19905.3,461.928,-201.606,461.928,16143.5,-48.3771,-201.606,-48.3771,19050.7,10,7,59,67,154,340
52.5008,0.000268893,-3.50166e-05,-0.000116737,-2.43712e-05,-0.000116737,-0.000270304,-0.000133367,-2.43712e-05,-0.000133367,5.89043e-06,-1933.77,-15.194,-3.1689,-15.194,-1964.4,-17.3545,-3.1689,-17.3545,-1928.44,10,81,131,132,157,341
317.802,0.00162913,0,0,-0.000951706,0,0,0.00103251,-0.000951706,0.00103251,0.00023701,1500.66,-0.255586,-123.798,-0.255586,1500.7,134.309,-123.798,134.309,1530.73,10,68,69,111,130,342
6398.36,0.0325736,0.016984,-0.0031258,-0.00531683,-0.0031258,-0.0287531,-0.0124908,-0.00531683,-0.0124908,0.00948573,-23033.2,-334.525,-662.998,-334.525,-29094.6,-1583.91,-662.998,-1583.91,-24013.8,10,2,3,43,101,343
226.103,0.001156,0,0.000623225,0,0.000623225,-0.00135058,-7.63031e-05,0,-7.63031e-05,0,-8714.43,81.155,-0.0124015,81.155,-8890.74,-9.93602,-0.0124015,-9.93602,-8714.53,10,68,76,113,130,344
384.657,0.0019709,0.000505166,0.000683469,0.000119089,0.000683469,-0.00155971,0.000762267,0.000119089,0.000762267,0.00100738,-275.713,88.5938,15.4305,88.5938,-544.487,99.5188,15.4305,99.5188,-210.579,10,69,76,79,130,345
226.103,0.001156,0,0.000623225,0,0.000623225,-0.00135058,-7.63031e-05,0,-7.63031e-05,0,-8714.43,81.155,-0.0124015,81.155,-8890.74,-9.93602,-0.0124015,-9.93602,-8714.53,10,68,112,113,130,346
226.103,0.001156,0,0.000623225,0,0.000623225,-0.00135058,-7.63031e-05,0,-7.63031e-05,0,-8714.43,81.155,-0.0124015,81.155,-8890.74,-9.93602,-0.0124015,-9.93602,-8714.53,10,75,76,113,130,347
400.089,0.00204896,6.46278e-05,-0.00171871,-0.000292096,-0.00171871,-0.000463256,0.00013606,-0.000292096,0.00013606,5.28572e-05,-2259.85,-223.794,-37.9869,-223.794,-2327.77,17.8153,-37.9869,17.8153,-2260.96,10,92,132,137,158,348
1874.75,0.00967053,0.00812949,-0.000172478,-0.00245675,-0.000172478,-0.00356799,-0.00523404,-0.00245675,-0.00523404,-0.000441968,26636.3,-21.5866,-320.413,-21.5866,25136.6,-679.435,-320.413,-679.435,25521,10,33,73,87,103,349
54.678,0.000280052,6.54321e-07,-9.70228e-05,3.15598e-06,-9.70228e-05,-0.000290801,-0.000142654,3.15598e-06,-0.000142654,8.01178e-06,-1817.78,-12.6249,0.414511,-12.6249,-1855.73,-18.5621,0.414511,-18.5621,-1816.82,10,81,93,132,157,350
365.695,0.00187784,0.000762635,0.000175711,-0.000127644,0.000175711,-0.000608766,0.00133123,-0.000127644,0.00133123,0.00110919,8195.57,22.4978,-16.5036,22.4978,8017.51,172.922,-16.5036,172.922,8240.38,10,69,70,79,130,351
4132.33,0.0212004,0.0100719,-0.00793509,0.00605992,-0.00793509,-0.0135896,-0.00908922,0.00605992,-0.00908922,0.0049102,5931.22,-976.573,817.239,-976.573,2762.56,-1132.92,817.239,-1132.92,5258.28,10,14,15,143,145,352
1366.3,0.00701522,0,0,1.78842e-05,0,0,0.00603098,1.78842e-05,0.00603098,0.00126912,7692.32,0.0280093,2.32489,0.0280093,7701.77,784.008,2.32489,784.008,7847.66,10,72,73,86,108,353
1337.62,0.00686503,0.00495667,0.00139951,-0.00257751,0.00139951,-0.000854274,-0.00307964,-0.00257751,-0.00307964,-0.00309226,6687.25,177.154,-341.156,177.154,5931.71,-400.786,-341.156,-400.786,5649.25,10,26,27,37,121,354
5684.97,0.0291469,0.0219838,0.0126643,-0.00428751,0.0126643,-0.0208114,-0.000722039,-0.00428751,-0.000722039,0.000422725,4968.85,1493.22,-567.595,1493.22,-764.41,-57.9415,-567.595,-57.9415,2080.87,10,23,114,115,155,355
2219.02,0.0113721,0.00871826,-0.00317098,0.000520699,-0.00317098,-0.00720248,-0.00468552,0.000520699,-0.00468552,-0.00125192,1576.1,-414.293,60.3171,-414.293,-506.379,-600.735,60.3171,-600.735,283.799,10,7,17,58,145,356
5298.06,0.0270199,0.0169053,-0.0100732,0.00551202,-0.0100732,-0.0209233,-0.00720072,0.00551202,-0.00720072,0.00227041,-16144.7,-1197.68,757.838,-1197.68,-21212.3,-900.576,757.838,-900.576,-18087.3,10,1,16,20,143,357
2239.16,0.0115081,0.00967405,0.00149977,0.00350202,0.00149977,-0.00852207,-0.00142051,0.00350202,-0.00142051,0.000828183,12710.1,217.949,457.656,217.949,10358.1,-175.993,457.656,-175.993,11571.3,10,0,13,16,146,358
4091.91,0.0211426,0.0203792,-0.00224188,0.00262847,-0.00224188,-0.0151359,-0.0025215,0.00262847,-0.0025215,0.000408061,34659.4,-206.376,352.802,-206.376,30059.7,-314.176,352.802,-314.176,32079.6,10,0,1,16,41,359
1257.52,0.00642979,0.00236393,0.000909255,0.00127221,0.000909255,-0.00657628,-8.84281e-05,0.00127221,-8.84281e-05,0.00296485,-8132.07,113.158,166.057,113.158,-9299.54,-15.0866,166.057,-15.0866,-8054.51,10,77,79,80,126,360
3672.61,0.0188813,0.0130093,0.00497592,-0.00337613,0.00497592,-0.0162063,-0.000208623,-0.00337613,-0.000208623,0.00570675,14371.2,602.182,-439.759,602.182,10553.3,6.36043,-439.759,6.36043,13404.5,10,59,67,153,154,361
2698.94,0.013948,0.0119311,0.00252882,0.00551613,0.00252882,-0.00893205,-5.06968e-05,0.00551613,-5.06968e-05,0.0023936,34325.5,357.946,711.67,357.946,31650.6,8.19798,711.67,8.19798,33106.3,10,12,13,16,146,362
5239.55,0.0268401,0.016859,-0.00983611,0.00523357,-0.00983611,-0.0197109,-0.00853846,0.00523357,-0.00853846,0.00374345,944.281,-1166.22,721.417,-1166.22,-3935.67,-1072.01,721.417,-1072.01,-786.277,10,15,16,20,143,363
4044.91,0.0207546,0.0108938,-0.00778952,0.00723457,-0.00778952,-0.0144582,-0.00583213,0.00723457,-0.00583213,0.00500532,6540.05,-950.825,961.26,-950.825,3170.34,-717.29,961.26,-717.29,5759.24,10,15,16,143,144,364
1366.3,0.00701522,0,0,1.78842e-05,0,0,0.00603098,1.78842e-05,0.00603098,0.00126912,7692.32,0.0280093,2.32489,0.0280093,7701.77,784.008,2.32489,784.008,7847.66,10,72,73,85,86,365
1585.71,0.00796938,2.10797e-06,0.000158749,0.000155635,0.000158749,-0.00392225,-0.00576136,0.000155635,-0.00576136,-0.00758333,-74991.7,20.8923,20.3259,20.8923,-75515.1,-765.146,20.3259,-765.146,-75995.1,10,7,58,59,149,366
4087.9,0.0209052,0.0149449,-0.000786527,0.000368499,-0.000786527,-0.0154838,-0.00977327,0.000368499,-0.00977327,-8.44522e-06,-5872.77,-114.662,52.5955,-114.662,-9874.53,-1244.23,52.5955,-1244.23,-7782.72,10,4,5,21,116,367
1805.11,0.00922407,0.00188043,0.00347207,-0.00216737,0.00347207,0.000735632,0.00606325,-0.00216737,0.00606325,-0.00416074,-10538.6,449.942,-280.783,449.942,-10687.6,791.538,-280.783,791.538,-11333,10,73,78,108,129,368
6080.41,0.0311915,0.0175056,0.0198428,0.00439577,0.0198428,-0.0179376,0.000139384,0.00439577,0.000139384,0.00254736,6571.64,2434.97,571.38,2434.97,1661.62,-31.898,571.38,-31.898,4463.71,10,40,122,124,125,369
1788.39,0.0091529,0.0061237,0.00280492,-0.00144501,0.00280492,-0.00207414,0.00460143,-0.00144501,0.00460143,-0.00466142,-3961.64,365.554,-184.271,365.554,-5023.5,599.708,-184.271,599.708,-5370.62,10,73,87,108,129,370
2220.09,0.0112667,4.19947e-06,0.00616044,0.00615331,0.00616044,-0.00578112,-0.00280992,0.00615331,-0.00280992,0.000174376,-37374.1,799.764,808.445,799.764,-38161.7,-381.411,808.445,-381.411,-37383.9,10,59,60,148,153,371
1406.85,0.00722455,0.00422655,-0.00157925,0.00445471,-0.00157925,0.000583429,-0.00144784,0.00445471,-0.00144784,-0.00344125,8846.17,-202.807,584.49,-202.807,8379.39,-190.296,584.49,-190.296,7865.19,10,47,48,49,97,372
5018.44,0.025753,0.0229101,-0.00212632,0.000400572,-0.00212632,-0.0214683,0.000583405,0.000400572,0.000583405,0.000420585,8523.27,-294.007,37.3576,-294.007,2760.83,71.753,37.3576,71.753,5602.79,10,34,89,94,98,373
10084.1,1.2485e-06,7.16349e-07,1.43444e-07,7.54661e-08,1.43444e-07,-9.60741e-07,-6.44677e-07,7.54661e-08,-6.44677e-07,1.46303e-07,3461.12,772.39,406.355,772.39,-5569.37,-3471.33,406.355,-3471.33,391.652,10,258,259,260,261,374
11621.8,1.43889e-06,5.4878e-07,5.37604e-07,-6.02881e-08,5.37604e-07,-1.39939e-06,4.02714e-08,-6.02881e-08,4.02714e-08,5.38571e-07,1694.81,2894.79,-324.629,2894.79,-8795.33,216.847,-324.629,216.847,1639.83,10,262,263,264,265,375
14568.1,1.80366e-06,5.6433e-07,2.00026e-07,4.94418e-08,2.00026e-07,-2.06576e-06,-3.9819e-08,4.94418e-08,-3.9819e-08,6.63334e-07,-345.951,1077.06,266.225,1077.06,-14508,-214.407,266.225,-214.407,187.149,10,262,266,267,268,376
12352.9,1.5294e-06,4.86533e-07,1.74761e-07,-4.97599e-08,1.74761e-07,-1.86151e-06,1.33658e-07,-4.97599e-08,1.33658e-07,3.00073e-07,-1721.18,941.022,-267.938,941.022,-14364.5,719.698,-267.938,719.698,-2725.2,10,262,269,270,271,377
11498.2,1.42359e-06,5.09277e-07,2.59028e-07,5.40253e-10,2.59028e-07,-1.55325e-06,3.27191e-07,5.40253e-10,3.27191e-07,3.98264e-07,134.563,1394.77,2.90914,1394.77,-10971.4,1761.8,2.90914,1761.8,-463.205,10,262,264,269,270,378
14847.2,1.83822e-06,9.51179e-07,2.82399e-07,-1.19376e-07,2.82399e-07,-1.89853e-06,3.7827e-07,-1.19376e-07,3.7827e-07,4.2129e-07,2997.23,1520.61,-642.797,1520.61,-12347.4,2036.84,-642.797,2036.84,143.976,10,262,264,270,272,379
14999.4,1.85707e-06,6.53901e-07,7.17713e-08,1.19552e-07,7.17713e-08,-2.14415e-06,3.09719e-08,1.19552e-07,3.09719e-08,6.06383e-07,-48.4695,386.46,643.744,386.46,-15114.9,166.776,643.744,166.776,-304.337,10,262,266,268,273,380
15254.9,1.8887e-06,9.3563e-07,-1.0921e-07,8.37771e-08,-1.0921e-07,-1.99579e-06,1.72148e-07,8.37771e-08,1.72148e-07,6.68063e-07,3454.52,-588.059,451.108,-588.059,-12330.1,926.948,451.108,926.948,2013.77,10,262,270,272,274,381
28468.3,3.52463e-06,5.35968e-07,-1.36108e-06,-1.84426e-07,-1.36108e-06,-3.89953e-06,-2.00571e-07,-1.84426e-07,-2.00571e-07,1.04148e-06,-6491.78,-7328.94,-993.061,-7328.94,-30375.3,-1079.99,-993.061,-1079.99,-3769.78,10,42,43,275,276,382
21500.1,2.66191e-06,1.12451e-06,-4.34861e-07,-8.55553e-08,-4.34861e-07,-2.87681e-06,1.54349e-07,-8.55553e-08,1.54349e-07,9.33366e-07,2747.8,-2341.56,-460.683,-2341.56,-18797.8,831.114,-460.683,831.114,1718.54,10,275,276,277,278,383
8482.14,1.05017e-06,7.14576e-07,-3.60201e-07,-2.53386e-07,-3.60201e-07,-7.23255e-07,-3.11888e-07,-2.53386e-07,-3.11888e-07,2.34904e-07,4761.31,-1939.54,-1364.38,-1939.54,-2980.86,-1679.4,-1364.38,-1679.4,2178.46,10,11,254,256,279,384
26373.6,3.2653e-06,1.89972e-06,-7.91157e-08,-3.00589e-07,-7.91157e-08,-3.37065e-06,-3.22691e-07,-3.00589e-07,-3.22691e-07,8.63012e-07,7774.17,-425.994,-1618.55,-425.994,-20604.8,-1737.56,-1618.55,-1737.56,2191.87,10,43,55,276,280,385
20661.6,2.5581e-06,1.09609e-06,-6.53546e-07,-3.28798e-08,-6.53546e-07,-2.69177e-06,-2.39825e-07,-3.28798e-08,-2.39825e-07,7.85095e-07,2628.5,-3519.11,-177.046,-3519.11,-17767.7,-1291.37,-177.046,-1291.37,953.894,10,42,276,278,281,386
20707.3,2.56376e-06,1.32355e-06,-1.25371e-07,-2.3649e-07,-1.25371e-07,-2.62754e-06,-1.65867e-07,-2.3649e-07,-1.65867e-07,1.0163e-06,5964.88,-675.079,-1273.41,-675.079,-15310.2,-893.123,-1273.41,-893.123,4310.47,10,275,276,277,280,387
16908.1,2.09338e-06,1.02205e-06,-2.43623e-07,2.24878e-08,-2.43623e-07,-2.2437e-06,1.0044e-07,2.24878e-08,1.0044e-07,6.74221e-07,3292.51,-1311.82,121.088,-1311.82,-14292.3,540.834,121.088,540.834,1419.6,10,273,274,277,278,388
15526.1,1.92228e-06,6.13198e-07,9.39093e-07,-1.87372e-07,9.39093e-07,-6.46188e-07,-1.11321e-06,-1.87372e-07,-1.11321e-06,7.93331e-07,6372.42,5056.65,-1008.93,5056.65,-408.896,-5994.21,-1008.93,-5994.21,7342.36,10,60,61,282,283,389
16781.6,2.07772e-06,7.1012e-07,-7.66432e-07,1.28628e-08,-7.66432e-07,-2.01116e-06,3.48386e-07,1.28628e-08,3.48386e-07,7.75005e-07,1699.3,-4126.95,69.2627,-4126.95,-12953.8,1875.93,69.2627,1875.93,2048.69,10,53,54,275,284,390
16554.6,2.04962e-06,8.04895e-07,-8.82714e-07,6.41566e-08,-8.82714e-07,-1.93391e-06,1.73917e-07,6.41566e-08,1.73917e-07,6.12619e-07,2248.55,-4753.09,345.459,-4753.09,-12498.9,936.477,345.459,936.477,1213.22,10,54,275,278,284,391
22100.1,2.73619e-06,1.13596e-06,-5.56735e-07,1.3058e-08,-5.56735e-07,-2.71266e-06,8.22075e-07,1.3058e-08,8.22075e-07,8.78541e-07,3297.12,-2997.82,70.3163,-2997.82,-17426.2,4426.57,70.3163,4426.57,1911.03,10,35,53,272,274,392
22575.7,2.79508e-06,1.04807e-06,-1.10691e-07,5.12151e-08,-1.10691e-07,-3.16926e-06,2.54992e-07,5.12151e-08,2.54992e-07,9.39132e-07,869.716,-596.028,275.774,-596.028,-21839,1373.04,275.774,1373.04,283.115,10,35,272,274,277,393
19420.8,2.40447e-06,1.09838e-06,-6.98248e-07,4.52063e-08,-6.98248e-07,-2.39279e-06,3.50286e-07,4.52063e-08,3.50286e-07,7.77663e-07,3827.47,-3759.81,243.421,-3759.81,-14971.2,1886.16,243.421,1886.16,2100.51,10,35,53,54,275,394
30529.7,3.77987e-06,1.36804e-06,-4.18877e-07,-3.55881e-07,-4.18877e-07,-4.02742e-06,2.34999e-07,-3.55881e-07,2.34999e-07,1.71027e-06,3533.25,-2255.51,-1916.28,-2255.51,-25519.3,1265.41,-1916.28,1265.41,5376.04,10,35,36,275,277,395
8601.79,1.06498e-06,1.31035e-07,8.87856e-08,1.66429e-08,8.87856e-08,-7.42111e-07,-7.53739e-07,1.66429e-08,-7.53739e-07,1.95745e-07,-971.736,478.076,89.615,478.076,-5673.3,-4058.6,89.615,-4058.6,-623.291,10,239,258,260,285,396
9661.27,1.19616e-06,2.84909e-07,3.5717e-08,6.00681e-08,3.5717e-08,-9.25122e-07,-7.84396e-07,6.00681e-08,-7.84396e-07,1.90443e-07,-282.271,192.323,323.444,192.323,-6797.84,-4223.67,323.444,-4223.67,-790.923,10,159,160,260,286,397
7748.74,9.59368e-07,2.89846e-07,1.6769e-07,-3.99305e-08,1.6769e-07,-7.41238e-07,-5.8532e-07,-3.99305e-08,-5.8532e-07,1.70003e-07,424.325,902.944,-215.012,902.944,-5127.68,-3151.72,-215.012,-3151.72,-220.983,10,165,166,167,285,398
7624.94,9.4404e-07,2.3893e-07,1.70821e-07,3.11794e-09,1.70821e-07,-7.41328e-07,-5.86478e-07,3.11794e-09,-5.86478e-07,1.55134e-07,-115.867,919.806,16.7876,919.806,-5394.19,-3157.96,16.7876,-3157.96,-567.071,10,166,167,260,285,399
10240.8,1.26791e-06,7.33602e-07,1.46213e-07,3.85166e-08,1.46213e-07,-9.80391e-07,-6.39681e-07,3.85166e-08,-6.39681e-07,2.19492e-07,3839.92,787.302,207.396,787.302,-5389.29,-3444.43,207.396,-3444.43,1071.63,10,167,259,260,261,400
7774.98,9.62616e-07,3.10386e-07,-2.21367e-08,-2.7421e-08,-2.21367e-08,-8.25191e-07,-5.11587e-07,-2.7421e-08,-5.11587e-07,3.16075e-07,868.736,-119.198,-147.651,-119.198,-5245.91,-2754.7,-147.651,-2754.7,899.376,10,160,161,260,286,401
18839.5,2.33251e-06,1.01825e-06,-1.86197e-07,2.36453e-08,-1.86197e-07,-2.55668e-06,9.09733e-08,2.36453e-08,9.09733e-08,8.20049e-07,2581.64,-1002.6,127.322,-1002.6,-16668,489.867,127.322,489.867,1514.42,10,266,276,278,287,402
18346.4,2.27146e-06,1.07977e-06,-5.94236e-08,5.59062e-09,-5.94236e-08,-2.48682e-06,-8.60348e-08,5.59062e-09,-8.60348e-08,7.23213e-07,3052.43,-319.972,30.1036,-319.972,-16152.3,-463.259,30.1036,-463.259,1132.51,10,266,276,287,288,403
12895.1,1.59653e-06,5.48655e-07,1.49525e-07,-2.86001e-08,1.49525e-07,-1.89366e-06,1.20218e-07,-2.86001e-08,1.20218e-07,3.9916e-07,-865.498,805.135,-154,805.135,-14016.5,647.332,-154,647.332,-1670.47,10,262,268,271,273,404
14816.2,1.83438e-06,6.04672e-07,-1.04642e-08,-2.33529e-08,-1.04642e-08,-2.15025e-06,-1.94678e-07,-2.33529e-08,-1.94678e-07,5.55094e-07,-744.133,-56.3485,-125.747,-56.3485,-15578.4,-1048.27,-125.747,-1048.27,-1011.09,10,266,268,287,289,405
16589.2,2.05389e-06,1.02633e-06,-1.65095e-07,1.94842e-08,-1.65095e-07,-2.20251e-06,-5.7133e-08,1.94842e-08,-5.7133e-08,6.68805e-07,3477.34,-888.977,104.915,-888.977,-13908.8,-307.638,104.915,-307.638,1552.2,10,266,273,277,278,406
13708.9,1.69729e-06,4.94215e-07,-3.63182e-07,-3.2752e-08,-3.63182e-07,-1.99315e-06,-1.74689e-07,-3.2752e-08,-1.74689e-07,4.1288e-07,-1724.85,-1955.59,-176.357,-1955.59,-15118.4,-940.632,-176.357,-940.632,-2162.81,10,278,290,291,292,407
12958,1.60433e-06,5.7053e-07,-4.27099e-07,-2.13482e-08,-4.27099e-07,-1.73017e-06,-3.49738e-07,-2.13482e-08,-3.49738e-07,3.71864e-07,-109.351,-2299.77,-114.951,-2299.77,-12497.8,-1883.21,-114.951,-1883.21,-1179.09,10,281,287,290,293,408
10101.9,1.25071e-06,3.77622e-07,-6.78706e-07,-1.55407e-08,-6.78706e-07,-1.01307e-06,-2.22999e-07,-1.55407e-08,-2.22999e-07,4.15248e-07,1144.08,-3654.57,-83.6798,-3654.57,-6344.26,-1200.77,-83.6798,-1200.77,1346.68,10,226,290,291,292,409
13969.4,1.72954e-06,5.25443e-07,-2.81632e-07,-4.92607e-08,-2.81632e-07,-2.03925e-06,-1.24663e-07,-4.92607e-08,-1.24663e-07,4.70029e-07,-1385.96,-1516.48,-265.25,-1516.48,-15195.9,-671.26,-265.25,-671.26,-1684.35,10,273,278,287,290,410
9811.22,1.21472e-06,4.29785e-07,-3.80997e-07,6.54381e-08,-3.80997e-07,-1.32266e-06,5.11739e-08,6.54381e-08,5.11739e-08,3.02235e-07,-71.062,-2051.52,352.359,-2051.52,-9507.31,275.553,352.359,275.553,-757.87,10,284,291,294,295,411
9900.7,1.2258e-06,3.80449e-07,-5.11901e-07,5.76886e-08,-5.11901e-07,-1.26498e-06,1.28511e-08,5.76886e-08,1.28511e-08,3.01796e-07,-304.787,-2756.39,310.632,-2756.39,-9164.8,69.1989,310.632,69.1989,-728.304,10,284,291,295,296,412
9593.07,1.18771e-06,5.54589e-08,-6.40933e-07,-4.68028e-08,-6.40933e-07,-1.0099e-06,2.18296e-07,-4.68028e-08,2.18296e-07,4.92742e-07,-1565.94,-3451.18,-252.015,-3451.18,-7302.49,1175.44,-252.015,1175.44,788.658,10,50,284,295,297,413
8313.85,1.02933e-06,1.90318e-07,-6.15528e-07,1.03047e-08,-6.15528e-07,-8.74738e-07,2.64506e-08,1.03047e-08,2.64506e-08,2.85594e-07,-585.859,-3314.38,55.4872,-3314.38,-6320.79,142.427,55.4872,142.427,-72.8401,10,48,223,295,296,414
6088.88,7.53861e-07,9.12059e-08,-4.51984e-07,8.29676e-08,-4.51984e-07,-5.40693e-07,1.32309e-07,8.29676e-08,1.32309e-07,3.16717e-07,-45.0816,-2433.76,446.749,-2433.76,-3447.62,712.436,446.749,712.436,1169.21,10,48,49,295,296,415
7792.92,9.64837e-07,6.98959e-08,-5.03835e-07,-1.19066e-07,-5.03835e-07,-7.9494e-07,-3.93516e-07,-1.19066e-07,-3.93516e-07,1.52209e-07,-1937.02,-2712.96,-641.122,-2712.96,-6593.84,-2118.93,-641.122,-2118.93,-1493.79,10,232,298,299,300,416
13507.4,1.67234e-06,4.46972e-07,-8.79692e-07,-5.29508e-08,-8.79692e-07,-1.29818e-06,-5.63012e-07,-5.29508e-08,-5.63012e-07,4.2736e-07,695.047,-4736.81,-285.12,-4736.81,-8701.94,-3031.6,-285.12,-3031.6,589.448,10,281,298,299,301,417
8512.59,1.05394e-06,1.31594e-07,-4.15038e-07,-2.42028e-07,-4.15038e-07,-7.36504e-07,-5.18195e-07,-2.42028e-07,-5.18195e-07,3.57848e-07,-289.176,-2234.82,-1303.22,-2234.82,-4963.56,-2790.28,-1303.22,-2790.28,929.116,10,298,299,300,301,418
9189.25,1.13772e-06,2.89882e-08,-6.39092e-07,-2.44317e-07,-6.39092e-07,-6.75476e-07,-4.69759e-07,-2.44317e-07,-4.69759e-07,3.65078e-07,-980.38,-3441.26,-1315.55,-3441.26,-4773.66,-2529.47,-1315.55,-2529.47,829.332,10,12,146,298,301,419
10945.6,1.35517e-06,6.88807e-07,-3.84066e-07,-1.11536e-07,-3.84066e-07,-1.05701e-06,-6.2037e-07,-1.11536e-07,-6.2037e-07,2.76093e-07,3336.95,-2068.05,-600.576,-2068.05,-6063.63,-3340.45,-600.576,-3340.45,1114.64,10,255,279,302,303,420
12890.4,1.59595e-06,9.03909e-07,-1.77296e-08,-4.03151e-08,-1.77296e-08,-1.36417e-06,-7.76839e-07,-4.03151e-08,-7.76839e-07,7.5849e-09,3039.09,-95.4634,-217.08,-95.4634,-9173.64,-4182.98,-217.08,-4182.98,-1787.27,10,58,162,259,261,421
11199,1.38654e-06,7.00453e-07,-1.26756e-07,-4.81778e-08,-1.26756e-07,-1.17016e-06,-6.85675e-07,-4.81778e-08,-6.85675e-07,2.50551e-07,2886.59,-682.531,-259.418,-682.531,-7185.97,-3692.09,-259.418,-3692.09,464.045,10,255,261,302,303,422
10600.2,1.31241e-06,5.46869e-07,-1.15082e-07,-1.19332e-07,-1.15082e-07,-1.13429e-06,-6.85802e-07,-1.19332e-07,-6.85802e-07,2.1842e-07,1454.46,-619.673,-642.554,-619.673,-7597.97,-3692.78,-642.554,-3692.78,-314.111,10,258,261,302,303,423
10784.7,1.33524e-06,6.45244e-07,2.80167e-09,1.46306e-08,2.80167e-09,-1.208e-06,-6.04072e-07,1.46306e-08,-6.04072e-07,3.01883e-07,2420.84,15.087,78.7803,15.087,-7558.19,-3252.69,78.7803,-3252.69,571.979,10,161,162,167,261,424
10218,1.26508e-06,6.64601e-07,1.19787e-07,1.41516e-09,1.19787e-07,-9.9051e-07,-6.5336e-07,1.41516e-09,-6.5336e-07,3.08995e-07,3510.31,645.006,7.61976,645.006,-5401.83,-3518.09,7.61976,-3518.09,1595.51,10,161,167,260,261,425
15711.4,1.94522e-06,9.42197e-07,1.00401e-06,-3.60509e-07,1.00401e-06,-3.88537e-07,-1.11943e-06,-3.60509e-07,-1.11943e-06,3.87192e-07,8872.93,5406.22,-1941.2,5406.22,1707.44,-6027.7,-1941.2,-6027.7,5884.43,10,61,147,283,304,426
11336.3,1.40354e-06,4.66143e-07,7.30775e-07,5.58344e-07,7.30775e-07,-7.23797e-07,-5.26026e-07,5.58344e-07,-5.26026e-07,-1.82637e-07,731.898,3934.94,3006.47,3934.94,-5675.49,-2832.45,3006.47,-2832.45,-2761.54,10,60,170,283,305,427
9428.1,1.16729e-06,2.07536e-07,5.24722e-07,3.28942e-07,5.24722e-07,-6.89967e-07,-5.92707e-07,3.28942e-07,-5.92707e-07,2.65852e-07,242.85,2825.43,1771.23,2825.43,-4589.87,-3191.5,1771.23,-3191.5,556.86,10,61,283,304,306,428
10286,1.2735e-06,5.89647e-07,2.77643e-07,6.40034e-08,2.77643e-07,-1.01087e-06,-6.50731e-07,6.40034e-08,-6.50731e-07,2.51894e-07,2491.17,1495,344.633,1495,-6127.03,-3503.93,344.633,-3503.93,672.499,10,304,305,306,307,429
9601.26,1.18873e-06,2.90593e-07,4.51318e-07,9.44293e-08,4.51318e-07,-7.603e-07,-7.01515e-07,9.44293e-08,-7.01515e-07,2.51919e-07,685.19,2430.17,508.463,2430.17,-4973.47,-3777.39,508.463,-3777.39,476.946,10,304,306,307,308,430
8421,1.0426e-06,2.94711e-07,-5.53254e-07,-1.25143e-07,-5.53254e-07,-6.13472e-07,-5.19455e-07,-1.25143e-07,-5.19455e-07,6.96019e-08,580.68,-2979.06,-673.845,-2979.06,-4309.55,-2797.06,-673.845,-2797.06,-631.447,10,209,216,300,309,431
9069.33,1.12287e-06,3.42183e-07,-4.78762e-07,-6.31554e-08,-4.78762e-07,-5.79693e-07,-6.98542e-07,-6.31554e-08,-6.98542e-07,7.09871e-08,1170.02,-2577.95,-340.066,-2577.95,-3793.94,-3761.38,-340.066,-3761.38,-290.265,10,241,302,309,310,432
7964.28,9.86053e-07,3.31614e-07,-3.71392e-07,-3.45008e-08,-3.71392e-07,-7.81902e-07,-4.70256e-07,-3.45008e-08,-4.70256e-07,1.95508e-07,756.686,-1999.8,-185.771,-1999.8,-5239.18,-2532.14,-185.771,-2532.14,23.8123,10,210,279,302,309,433
13006.2,1.61029e-06,4.82957e-07,-5.45384e-07,2.19802e-08,-5.45384e-07,-1.44926e-06,-6.72553e-07,2.19802e-08,-6.72553e-07,4.0201e-07,321.66,-2936.69,118.355,-2936.69,-10082.6,-3621.44,118.355,-3621.44,-114.212,10,279,301,310,311,434
14272.7,1.76709e-06,8.35069e-07,4.92354e-07,3.24093e-07,4.92354e-07,-1.73948e-06,-3.08459e-07,3.24093e-07,-3.08459e-07,4.00356e-07,2460.88,2651.14,1745.12,2651.14,-11402.1,-1660.93,1745.12,-1660.93,120.115,10,65,306,312,313,435
18017.7,2.23076e-06,1.25612e-06,3.27016e-07,1.58403e-07,3.27016e-07,-2.10955e-06,-7.09863e-07,1.58403e-07,-7.09863e-07,4.63829e-07,5190.33,1760.86,852.942,1760.86,-12932.5,-3822.35,852.942,-3822.35,924.128,10,67,282,312,314,436
17745.9,2.19711e-06,1.07703e-06,3.44573e-07,2.54075e-07,3.44573e-07,-2.07992e-06,-6.07037e-07,2.54075e-07,-6.07037e-07,8.14338e-07,5037.88,1855.4,1368.1,1855.4,-11961.1,-3268.66,1368.1,-3268.66,3623.39,10,65,67,282,312,437
14116.6,1.74776e-06,7.31055e-07,5.51354e-07,1.02713e-07,5.51354e-07,-1.47514e-06,-8.09345e-07,1.02713e-07,-8.09345e-07,1.88156e-07,1691.34,2968.83,553.071,2968.83,-10188.2,-4358.02,553.071,-4358.02,-1231.96,10,282,283,305,306,438
17080.1,2.11467e-06,6.04843e-07,5.19977e-07,3.6733e-07,5.19977e-07,-1.73375e-06,-9.35991e-07,3.6733e-07,-9.35991e-07,8.90097e-07,2292.37,2799.88,1977.93,2799.88,-10300.1,-5039.96,1977.93,-5039.96,3828.35,10,61,65,282,306,439
14771.6,1.82886e-06,1.27701e-06,5.08683e-07,3.10265e-08,5.08683e-07,-1.01979e-06,-9.63535e-07,3.10265e-08,-9.63535e-07,1.98141e-07,8715.12,2739.06,167.066,2739.06,-3652.24,-5188.26,167.066,-5188.26,2905.84,10,59,282,305,314,440
13141.5,1.62704e-06,6.29019e-07,4.67256e-07,3.74833e-08,4.67256e-07,-1.25368e-06,-8.7744e-07,3.74833e-08,-8.7744e-07,2.6128e-07,1919.53,2516,201.833,2516,-8218.07,-4724.68,201.833,-4724.68,-60.6072,10,305,306,307,312,441
8094.9,1.00222e-06,1.02895e-07,5.81759e-07,1.34646e-07,5.81759e-07,-8.69846e-07,-2.48818e-07,1.34646e-07,-2.48818e-07,1.59572e-07,-1898.83,3132.55,725.013,3132.55,-7136.68,-1339.79,725.013,-1339.79,-1593.65,10,221,227,315,316,442
16367.8,2.02649e-06,6.5908e-07,-1.08105e-06,6.05378e-08,-1.08105e-06,-1.66568e-06,-1.38434e-07,6.05378e-08,-1.38434e-07,7.66378e-07,2578.73,-5821.03,325.973,-5821.03,-9939.22,-745.416,325.973,-745.416,3156.49,10,41,278,281,317,443
16713,2.06923e-06,6.2838e-07,5.483e-07,-8.41516e-08,5.483e-07,-1.86803e-06,-9.122e-07,-8.41516e-08,-9.122e-07,6.21274e-07,886.256,2952.39,-453.124,2952.39,-12556,-4911.86,-453.124,-4911.86,847.989,10,289,313,316,318,444
15910.9,1.96992e-06,7.8388e-07,1.05319e-06,-5.79373e-08,1.05319e-06,-1.65161e-06,-2.76177e-07,-5.79373e-08,-2.76177e-07,4.1239e-07,2381.99,5671.01,-311.971,5671.01,-10732.2,-1487.1,-311.971,-1487.1,381.665,10,267,313,316,318,445
8216.55,1.01729e-06,0,1.25724e-07,0,1.25724e-07,-1.46369e-06,-2.14984e-07,0,-2.14984e-07,0,-5911.05,676.977,-0.000291079,676.977,-13792.5,-1157.61,-0.000291079,-1157.61,-5911.05,10,221,222,229,268,446
10914.7,1.35134e-06,2.5981e-07,5.83125e-07,-2.53808e-07,5.83125e-07,-1.33907e-06,-3.49916e-07,-2.53808e-07,-3.49916e-07,2.41906e-07,-1982.66,3139.91,-1366.66,3139.91,-10592,-1884.17,-1366.66,-1884.17,-2079.06,10,221,229,267,316,447
11269.9,1.39532e-06,5.18864e-07,2.50966e-07,7.50539e-08,2.50966e-07,-1.41327e-06,-4.347e-07,7.50539e-08,-4.347e-07,4.5165e-07,1005.8,1351.36,404.136,1351.36,-9398.03,-2340.69,404.136,-2340.69,643.883,10,229,267,268,289,448
10014.7,1.23991e-06,1.95233e-07,5.35944e-07,7.38907e-08,5.35944e-07,-1.20292e-06,-4.16313e-07,7.38907e-08,-4.16313e-07,2.67482e-07,-1938.03,2885.85,397.872,2885.85,-9466.53,-2241.68,397.872,-2241.68,-1548.99,10,313,316,319,320,449
12049.6,1.49185e-06,5.27404e-07,5.39709e-07,1.3952e-07,5.39709e-07,-1.26784e-06,-6.0509e-07,1.3952e-07,-6.0509e-07,3.78005e-07,1376.19,2906.13,751.26,2906.13,-8290.51,-3258.18,751.26,-3258.18,571.738,10,61,282,283,306,450
10449.8,1.29379e-06,4.65107e-07,5.94561e-07,-2.74128e-09,5.94561e-07,-1.15436e-06,1.02413e-07,-2.74128e-09,1.02413e-07,4.96356e-07,1725.41,3201.48,-14.7612,3201.48,-6994.78,551.456,-14.7612,551.456,1893.67,10,30,31,37,321,451
11422.3,1.41419e-06,8.18249e-07,6.27516e-07,4.43456e-07,6.27516e-07,-9.23192e-07,-3.88582e-07,4.43456e-07,-3.88582e-07,-1.89642e-08,3905.54,3378.94,2387.84,3378.94,-5471.45,-2092.36,2387.84,-2092.36,-602.526,10,147,170,283,304,452
9714.31,1.20273e-06,7.16132e-07,5.04866e-07,1.08981e-07,5.04866e-07,-7.12128e-07,-5.35261e-07,1.08981e-07,-5.35261e-07,2.56905e-07,4909.75,2718.51,586.817,2718.51,-2780.88,-2882.17,586.817,-2882.17,2436.99,10,283,304,305,306,453
9378.89,1.1612e-06,6.25934e-07,2.56416e-07,2.11331e-07,2.56416e-07,-1.0119e-06,-4.70577e-07,2.11331e-07,-4.70577e-07,-3.04963e-08,1688.53,1380.7,1137.93,1380.7,-7130.6,-2533.88,1137.93,-2533.88,-1846.1,10,59,169,170,305,454
7012.56,8.68221e-07,1.8652e-07,-6.63619e-07,5.75414e-08,-6.63619e-07,-4.50329e-07,6.4903e-08,5.75414e-08,6.4903e-08,8.7516e-08,292.383,-3573.33,309.838,-3573.33,-3136.81,349.478,309.838,349.478,-240.719,10,47,48,208,295,455
9588.39,1.18713e-06,2.68478e-07,7.22349e-07,1.13076e-08,7.22349e-07,-8.73363e-07,-3.0576e-07,1.13076e-08,-3.0576e-07,2.86477e-07,159.761,3889.57,60.8852,3889.57,-5988.62,-1646.4,60.8852,-1646.4,256.679,10,189,227,322,323,456
9651.25,1.19492e-06,2.5555e-07,6.83946e-07,6.42612e-08,6.83946e-07,-9.55195e-07,-2.46535e-07,6.42612e-08,-2.46535e-07,3.67883e-07,36.2198,3682.79,346.021,3682.79,-6483.19,-1327.49,346.021,-1327.49,641.084,10,174,189,322,323,457
8398.31,1.03979e-06,2.56456e-08,7.98254e-07,7.82005e-08,7.98254e-07,-5.62045e-07,-6.21828e-08,7.82005e-08,-6.21828e-08,2.1347e-07,-1166.05,4298.29,421.079,4298.29,-4330.55,-334.831,421.079,-334.831,-154.692,10,173,174,220,323,458
7802.78,9.66057e-07,0,7.33724e-07,0,7.33724e-07,-6.0063e-07,-2.03341e-07,0,-2.03341e-07,0,-2425.62,3950.82,-0.00160673,3950.82,-5659.8,-1094.91,-0.00160673,-1094.91,-2425.63,10,173,183,220,323,459
9346.77,1.15722e-06,2.3862e-07,6.67295e-07,1.08408e-07,6.67295e-07,-9.68638e-07,-2.11827e-07,1.08408e-07,-2.11827e-07,2.78634e-07,-538.027,3593.13,583.732,3593.13,-7038.66,-1140.61,583.732,-1140.61,-322.571,10,174,315,322,323,460
8936.49,1.10642e-06,2.13858e-07,7.71233e-07,-4.57582e-08,7.71233e-07,-8.08843e-07,-1.72369e-07,-4.57582e-08,-1.72369e-07,2.71019e-09,-1240.34,4152.79,-246.392,4152.79,-6747.21,-928.141,-246.392,-928.141,-2377.3,10,220,227,315,323,461
13766.6,1.70444e-06,6.3891e-07,-7.28112e-07,-1.54137e-07,-7.28112e-07,-1.33273e-06,-6.51965e-07,-1.54137e-07,-6.51965e-07,4.80173e-07,2577.47,-3920.61,-829.966,-3920.61,-8039.05,-3510.58,-829.966,-3510.58,1722.73,10,281,299,301,311,462
11497.7,1.42352e-06,4.32912e-07,-7.80404e-07,2.64162e-09,-7.80404e-07,-1.11712e-06,-3.29394e-07,2.64162e-09,-3.29394e-07,4.35633e-07,1327.2,-4202.18,14.2237,-4202.18,-7019.11,-1773.66,14.2237,-1773.66,1341.85,10,180,298,317,324,463
13242.8,1.63958e-06,7.41589e-07,-9.03508e-07,-2.25626e-07,-9.03508e-07,-1.02434e-06,-5.07805e-07,-2.25626e-07,-5.07805e-07,4.36832e-07,4615.4,-4865.04,-1214.91,-4865.04,-4893.46,-2734.33,-1214.91,-2734.33,2974.39,10,140,146,301,311,464
7742.3,9.58569e-07,1.15978e-07,-3.86197e-07,-7.25572e-08,-3.86197e-07,-7.30738e-07,-4.61192e-07,-7.25572e-08,-4.61192e-07,3.47139e-07,-456.288,-2079.52,-390.69,-2079.52,-5015.53,-2483.34,-390.69,-2483.34,788.43,10,12,209,300,301,465
13319.8,1.64911e-06,5.1423e-07,-5.86705e-07,6.20413e-08,-5.86705e-07,-1.4044e-06,-7.63139e-07,6.20413e-08,-7.63139e-07,3.07788e-07,416.984,-3159.19,334.068,-3159.19,-9914.11,-4109.22,334.068,-4109.22,-694.626,10,299,301,310,311,466
9064.69,1.12229e-06,5.13022e-07,-2.02491e-07,1.41161e-07,-2.02491e-07,-1.31314e-06,-8.2526e-08,1.41161e-07,-8.2526e-08,-4.00787e-08,-630.698,-1090.34,760.098,-1090.34,-10463.9,-444.371,760.098,-444.371,-3608.94,10,225,230,273,290,467
9537.72,1.18086e-06,4.57658e-07,-2.08142e-07,-3.11225e-08,-2.08142e-07,-1.30372e-06,-1.30245e-09,-3.11225e-08,-1.30245e-09,4.00216e-07,663.759,-1120.77,-167.583,-1120.77,-8820.6,-7.01262,-167.583,-7.01262,354.458,10,225,273,290,294,468
9624.68,1.19163e-06,3.50089e-07,-8.44189e-07,3.63831e-08,-8.44189e-07,-7.89986e-07,-1.07637e-07,3.63831e-08,-1.07637e-07,-1.15842e-08,61.7947,-4545.64,195.91,-4545.64,-6077.08,-579.584,195.91,-579.584,-1885.68,10,223,226,291,324,469
7652.96,9.47507e-07,0,-4.75783e-07,0,-4.75783e-07,-1.14719e-06,-9.09922e-08,0,-9.09922e-08,0,-4632.87,-2561.91,0.000466229,-2561.91,-10810,-489.959,0.000466229,-489.959,-4632.87,10,223,224,226,291,470
11091.3,1.37321e-06,4.37749e-07,-7.98316e-07,-1.73344e-07,-7.98316e-07,-1.06635e-06,6.30665e-09,-1.73344e-07,6.30665e-09,4.23208e-07,1527.63,-4298.63,-933.39,-4298.63,-6571.35,33.9609,-933.39,33.9609,1449.34,10,180,296,317,324,471
14753.4,1.82661e-06,5.97561e-07,-3.93375e-07,1.01008e-07,-3.93375e-07,-1.88519e-06,-3.81145e-07,1.01008e-07,-3.81145e-07,7.53827e-07,1061.86,-2118.17,543.892,-2118.17,-12306.8,-2052.32,543.892,-2052.32,1903.29,10,278,281,287,290,472
10095.8,1.24995e-06,3.40788e-07,-8.3149e-07,5.15443e-09,-8.3149e-07,-7.67845e-07,-2.09098e-07,5.15443e-09,-2.09098e-07,4.09509e-07,1764.14,-4477.25,27.7556,-4477.25,-4205.43,-1125.91,27.7556,-1125.91,2134.17,10,226,291,292,324,473
13336.5,1.65119e-06,5.36727e-07,-7.9226e-07,-8.59395e-09,-7.9226e-07,-1.50772e-06,5.71243e-08,-8.59395e-09,5.71243e-08,5.66448e-07,1256.32,-4266.02,-46.2736,-4266.02,-9752.23,307.596,-46.2736,307.596,1416.35,10,278,284,291,317,474
18698.2,2.31501e-06,1.0841e-06,2.40552e-07,1.3014e-08,2.40552e-07,-2.53565e-06,-1.1338e-07,1.3014e-08,-1.1338e-07,6.95054e-07,2782.3,1295.28,70.0749,1295.28,-16708.7,-610.504,70.0749,-610.504,687.457,10,266,288,289,318,475
17396.7,2.15388e-06,9.89208e-07,2.62747e-07,-4.78069e-08,2.62747e-07,-2.34084e-06,-6.78665e-08,-4.78069e-08,-6.78665e-08,7.00218e-07,2695.75,1414.79,-257.422,1414.79,-15235.3,-365.433,-257.422,-365.433,1139.65,10,262,266,277,325,476
19363.7,2.39741e-06,1.02753e-06,2.37821e-07,5.76372e-08,2.37821e-07,-2.58096e-06,-1.45676e-07,5.76372e-08,-1.45676e-07,9.32904e-07,3026.85,1280.58,310.354,1280.58,-16403.5,-784.403,310.354,-784.403,2517.31,10,266,280,318,325,477
10232.8,1.26691e-06,4.31943e-07,4.40396e-07,2.05036e-08,4.40396e-07,-1.32753e-06,-1.3671e-07,2.05036e-08,-1.3671e-07,3.58704e-07,157.677,2371.36,110.404,2371.36,-9316.4,-736.129,110.404,-736.129,-236.689,10,221,267,268,271,478
11900.9,1.47344e-06,6.33387e-07,1.51292e-07,-4.26532e-08,1.51292e-07,-1.48672e-06,-4.65039e-07,-4.26532e-08,-4.65039e-07,4.62568e-07,1832.43,814.645,-229.672,814.645,-9583.56,-2504.06,-229.672,-2504.06,912.634,10,229,268,287,289,479
8033.14,9.94579e-07,3.57611e-08,4.61243e-07,1.13843e-07,4.61243e-07,-6.58184e-07,-5.65123e-07,1.13843e-07,-5.65123e-07,1.67634e-07,-1644.09,2483.62,612.998,2483.62,-5380.74,-3042.97,612.998,-3042.97,-934.008,10,185,233,308,320,480
12095.5,1.49753e-06,1.69363e-07,7.72772e-07,8.74648e-07,7.72772e-07,-6.13421e-07,-4.06387e-07,8.74648e-07,-4.06387e-07,-2.87392e-07,-2041.99,4161.09,4709.64,4161.09,-6257,-2188.24,4709.64,-2188.24,-4501.44,10,60,147,170,283,481
7824.24,9.68716e-07,2.45605e-07,2.41918e-07,7.71749e-08,2.41918e-07,-7.41071e-07,-5.52361e-07,7.71749e-08,-5.52361e-07,2.74309e-07,429.345,1302.63,415.555,1302.63,-4883.53,-2974.25,415.555,-2974.25,583.907,10,164,168,285,304,482
11994.4,1.48502e-06,4.41296e-07,5.35354e-07,2.48486e-08,5.35354e-07,-1.37131e-06,-4.86057e-07,2.48486e-08,-4.86057e-07,4.97965e-07,631.378,2882.68,133.799,2882.68,-9128.82,-2617.23,133.799,-2617.23,936.518,10,267,313,316,322,483
10037.7,1.24276e-06,4.01246e-07,5.47613e-07,6.16191e-08,5.47613e-07,-9.59001e-07,-5.63844e-07,6.16191e-08,-5.63844e-07,1.92851e-07,686.899,2948.68,331.793,2948.68,-6637.52,-3036.08,331.793,-3036.08,-435.231,10,163,306,308,320,484
8732.04,1.08111e-06,1.2178e-10,4.02922e-07,-1.3468e-07,4.02922e-07,-7.92499e-07,-6.44925e-07,-1.3468e-07,-6.44925e-07,2.11565e-07,-2344.94,2169.58,-725.206,2169.58,-6612.91,-3472.67,-725.206,-3472.67,-1206.39,10,164,185,186,308,485
7860.49,9.73203e-07,0,5.0603e-07,0,5.0603e-07,-5.77547e-07,-5.85738e-07,0,-5.85738e-07,0,-2332.41,2724.78,-0.00319201,2724.78,-5442.29,-3153.98,-0.00319201,-3153.98,-2332.41,10,185,186,238,308,486
8785.2,1.08769e-06,4.38553e-07,-4.23255e-07,1.21889e-07,-4.23255e-07,-1.04716e-06,1.08204e-07,1.21889e-07,1.08204e-07,3.19611e-07,1194.33,-2279.07,656.326,-2279.07,-6805.68,582.639,656.326,582.639,553.87,10,49,50,295,296,487
7616.89,9.43043e-07,0,5.27653e-07,0,5.27653e-07,-7.16267e-07,-4.66441e-07,0,-4.66441e-07,0,-2892.62,2841.21,-0.00265051,2841.21,-6749.46,-2511.6,-0.00265051,-2511.6,-2892.62,10,184,185,233,320,488
8895.3,1.10132e-06,7.14851e-08,5.19625e-07,1.17775e-07,5.19625e-07,-9.02242e-07,-4.15844e-07,1.17775e-07,-4.15844e-07,3.89308e-07,-1397.86,2797.98,634.171,2797.98,-6641.02,-2239.16,634.171,-2239.16,313.49,10,227,316,320,322,489
15767.6,1.95218e-06,7.71193e-07,4.175e-07,1.93803e-07,4.175e-07,-1.75348e-06,-6.87314e-07,1.93803e-07,-6.87314e-07,8.28515e-07,3531.53,2248.08,1043.55,2248.08,-10062.9,-3700.93,1043.55,-3700.93,3840.19,10,65,282,306,312,490
15177.8,1.87915e-06,6.04195e-07,9.33069e-07,2.02501e-07,9.33069e-07,-1.65652e-06,-3.85065e-07,2.02501e-07,-3.85065e-07,4.39433e-07,778.185,5024.23,1090.39,5024.23,-11394.9,-2073.43,1090.39,-2073.43,-108.994,10,61,65,306,313,491
9558.49,1.18343e-06,1.99498e-08,4.47339e-07,3.39262e-07,4.47339e-07,-9.62877e-07,-4.64241e-07,3.39262e-07,-4.64241e-07,4.42043e-07,-1915.39,2408.75,1826.79,2408.75,-7207.54,-2499.76,1826.79,-2499.76,357.418,10,62,306,313,320,492
10216.8,1.26494e-06,-2.6952e-08,6.77972e-07,2.92072e-07,6.77972e-07,-7.97048e-07,-5.07459e-07,2.92072e-07,-5.07459e-07,4.52852e-07,-1644.01,3650.62,1572.69,3650.62,-5790.69,-2732.47,1572.69,-2732.47,939.554,10,61,62,306,313,493
9549.07,1.18227e-06,3.09391e-08,6.73875e-07,2.9825e-07,6.73875e-07,-8.32334e-07,-3.6581e-07,2.9825e-07,-3.6581e-07,3.4454e-07,-1678.41,3628.56,1605.96,3628.56,-6326.81,-1969.74,1605.96,-1969.74,10.2116,10,62,63,313,322,494
16869.1,2.08855e-06,-1.77522e-07,1.35979e-06,-1.57843e-07,1.35979e-06,-8.87477e-07,-8.14873e-07,-1.57843e-07,-8.14873e-07,8.17567e-07,-1955.16,7321.97,-849.933,7321.97,-5778.02,-4387.77,-849.933,-4387.77,3403,10,63,66,313,326,495
15896,1.96807e-06,6.74043e-07,8.79863e-07,4.15376e-09,8.79863e-07,-1.8686e-06,-2.76708e-07,4.15376e-09,-2.76708e-07,5.49009e-07,1022.42,4737.73,22.3664,4737.73,-12668.7,-1489.97,22.3664,-1489.97,349.16,10,267,313,318,326,496
9419.49,1.16622e-06,0,-3.8447e-07,1.32349e-22,-3.8447e-07,-7.22873e-07,-8.35497e-07,1.32349e-22,-8.35497e-07,0,-2919.31,-2070.22,0.00345933,-2070.22,-6811.71,-4498.83,0.00345933,-4498.83,-2919.3,10,211,214,215,241,497
9834.97,1.21766e-06,5.41628e-07,-2.67491e-07,6.41269e-09,-2.67491e-07,-8.67667e-07,-7.22526e-07,6.41269e-09,-7.22526e-07,9.30776e-08,1975.64,-1440.34,34.5308,-1440.34,-5612.88,-3890.53,34.5308,-3890.53,-439.629,10,240,302,310,327,498
7896.72,9.77689e-07,5.74819e-08,-4.74654e-07,-1.17247e-07,-4.74654e-07,-7.01593e-07,-4.89455e-07,-1.17247e-07,-4.89455e-07,2.09683e-07,-1444.91,-2555.83,-631.331,-2555.83,-5532.24,-2635.53,-631.331,-2635.53,-625.364,10,299,300,301,309,499
10600,1.31238e-06,6.83778e-07,-4.1101e-07,-4.44149e-08,-4.1101e-07,-1.01326e-06,-6.19273e-07,-4.44149e-08,-6.19273e-07,6.35489e-08,2607.9,-2213.13,-239.156,-2213.13,-6530.02,-3334.54,-239.156,-3334.54,-731.797,10,279,302,303,310,500
14263.2,1.76592e-06,6.98014e-07,-6.45695e-07,-1.2791e-07,-6.45695e-07,-1.65944e-06,-5.34144e-07,-1.2791e-07,-5.34144e-07,3.51517e-07,1295.43,-3476.82,-688.748,-3476.82,-11398.5,-2876.16,-688.748,-2876.16,-570.318,10,293,310,311,328,501
10855.6,1.34402e-06,4.93107e-07,-1.06245e-07,-1.18468e-08,-1.06245e-07,-1.14757e-06,-7.22457e-07,-1.18468e-08,-7.22457e-07,3.4016e-07,1385.89,-572.092,-63.7904,-572.092,-7448.53,-3890.15,-63.7904,-3890.15,562.33,10,235,293,310,327,502
11076.7,1.3714e-06,3.56508e-07,-3.52192e-07,-5.77834e-09,-3.52192e-07,-1.39918e-06,-5.20949e-07,-5.77834e-09,-5.20949e-07,3.35081e-07,-937.933,-1896.42,-31.1133,-1896.42,-10391.6,-2805.11,-31.1133,-2805.11,-1053.3,10,293,299,310,311,503
8191.66,1.0142e-06,8.03189e-08,5.36622e-07,1.33672e-07,5.36622e-07,-9.59196e-07,-2.44887e-07,1.33672e-07,-2.44887e-07,1.98155e-07,-2316.59,2889.5,719.772,2889.5,-7913.99,-1318.62,719.772,-1318.62,-1682.09,10,227,315,316,322,504
11226.5,1.38994e-06,4.36986e-07,5.98573e-07,-8.07099e-08,5.98573e-07,-1.33806e-06,-3.41368e-07,-8.07099e-08,-3.41368e-07,2.84156e-07,-138.408,3223.09,-434.592,3223.09,-9696.36,-1838.14,-434.592,-1838.14,-961.345,10,221,267,315,316,505
8362.63,1.03537e-06,0,2.61136e-07,0,2.61136e-07,-4.70515e-07,-8.13641e-07,0,-8.13641e-07,0,-1900.16,1406.11,-0.00228815,1406.11,-4433.71,-4381.14,-0.00228815,-4381.14,-1900.16,10,187,188,239,285,506
9328.06,1.1549e-06,2.5344e-07,7.09928e-07,4.74081e-08,7.09928e-07,-8.82435e-07,-2.80054e-07,4.74081e-08,-2.80054e-07,2.1405e-07,-311.074,3822.69,255.273,3822.69,-6427.33,-1507.98,255.273,-1507.98,-523.175,10,227,315,322,323,507
10570,1.30867e-06,4.31496e-07,5.96902e-07,2.51327e-08,5.96902e-07,-1.30698e-06,-5.59005e-08,2.51327e-08,-5.59005e-08,2.73948e-07,-105.847,3214.09,135.329,3214.09,-9466.88,-301,135.329,-301,-954.186,10,221,265,267,315,508
11464.4,1.4194e-06,3.05187e-07,9.18629e-07,5.25673e-08,9.18629e-07,-1.06167e-06,-1.13124e-07,5.25673e-08,-1.13124e-07,3.65757e-07,65.3569,4946.47,283.055,4946.47,-7294.66,-609.127,283.055,-609.127,391.507,10,25,315,326,329,509
10821,1.33974e-06,4.11054e-07,5.50782e-07,-1.15934e-07,5.50782e-07,-1.32069e-06,-4.88969e-08,-1.15934e-07,-4.88969e-08,4.57192e-07,386.172,2965.75,-624.26,2965.75,-8938.62,-263.288,-624.26,-263.288,634.605,10,267,315,326,329,510
8033.19,9.94585e-07,1.93021e-07,5.25888e-07,8.82169e-08,5.25888e-07,-7.53395e-07,-4.4871e-07,8.82169e-08,-4.4871e-07,3.10665e-08,-1098.25,2831.7,475.012,2831.7,-6194.35,-2416.13,475.012,-2416.13,-1970.31,10,228,233,319,320,511
9696.93,1.20057e-06,-3.36612e-08,5.45021e-07,2.90774e-07,5.45021e-07,-1.07228e-06,-3.46983e-07,2.90774e-07,-3.46983e-07,4.10378e-07,-2990.29,2934.73,1565.71,2934.73,-8582.88,-1868.37,1565.71,-1868.37,-599.302,10,62,313,320,322,512
8771.16,1.08595e-06,2.0242e-07,5.09493e-07,4.83127e-08,5.09493e-07,-7.18782e-07,-5.85173e-07,4.83127e-08,-5.85173e-07,1.93385e-07,-214.382,2743.42,260.142,2743.42,-5174.71,-3150.93,260.142,-3150.93,-263.033,10,163,185,308,320,513
8566.99,1.06067e-06,2.42173e-07,6.58531e-07,1.2421e-07,6.58531e-07,-6.57367e-07,-4.13149e-07,1.2421e-07,-4.13149e-07,4.75264e-08,-180.81,3545.94,668.822,3545.94,-5024.5,-2224.65,668.822,-2224.65,-1228.91,10,184,189,227,320,514
14766,1.82818e-06,1.05061e-06,-5.29099e-07,-1.85727e-07,-5.29099e-07,-1.47204e-06,-5.72201e-07,-1.85727e-07,-5.72201e-07,6.95701e-07,6764.75,-2848.99,-1000.07,-2848.99,-6818.78,-3081.09,-1000.07,-3081.09,4853.68,10,142,145,314,328,515
14582.1,1.8054e-06,8.48383e-07,1.61372e-07,6.07658e-09,1.61372e-07,-1.64282e-06,-8.45225e-07,6.07658e-09,-8.45225e-07,2.79375e-07,2488.15,868.93,32.7211,868.93,-10926,-4551.22,32.7211,-4551.22,-575.741,10,259,305,314,327,516
26461.5,3.27617e-06,1.1102e-06,-3.58734e-08,6.40935e-09,-3.58734e-08,-3.79353e-06,-4.06321e-07,6.40935e-09,-4.06321e-07,1.0281e-06,-706.715,-193.168,34.5116,-193.168,-27111.5,-2187.91,34.5116,-2187.91,-1148.78,10,56,288,314,328,517
20314.5,2.51513e-06,1.20194e-06,3.04183e-07,-1.21082e-08,3.04183e-07,-2.27262e-06,-9.30473e-07,-1.21082e-08,-9.30473e-07,9.82352e-07,6115.24,1637.91,-65.1966,1637.91,-12594,-5010.25,-65.1966,-5010.25,4932.82,10,288,289,312,314,518
28858.8,3.57299e-06,1.37003e-06,6.37194e-07,-2.5115e-07,6.37194e-07,-2.89679e-06,-1.49722e-06,-2.5115e-07,-1.49722e-06,1.87052e-06,8765.2,3431.05,-1352.34,3431.05,-14210,-8062,-1352.34,-8062,11460.1,10,56,67,312,314,519
15654.9,1.93823e-06,9.2825e-07,-1.60964e-07,-1.65914e-07,-1.60964e-07,-1.66983e-06,-9.23156e-07,-1.65914e-07,-9.23156e-07,4.49668e-07,3819.36,-866.734,-893.386,-866.734,-10170.3,-4970.84,-893.386,-4970.84,1242.37,10,303,314,327,328,520
27733.9,3.43373e-06,1.46666e-06,-1.03769e-06,3.06525e-07,-1.03769e-06,-2.96734e-06,-1.17706e-06,3.06525e-07,-1.17706e-06,1.27812e-06,6998.46,-5587.61,1650.51,-5587.61,-16876.9,-6338.04,1650.51,-6338.04,5983.22,10,56,145,314,328,521
8590.68,1.06361e-06,2.52338e-07,3.77615e-07,-5.46369e-08,3.77615e-07,-1.19308e-06,-4.00334e-08,-5.46369e-08,-4.00334e-08,2.62334e-07,-1381,2033.31,-294.199,2033.31,-9164.04,-215.563,-294.199,-215.563,-1327.18,10,265,315,329,330,522
9899.78,1.22569e-06,5.99587e-07,5.80952e-07,-6.86759e-08,5.80952e-07,-1.08383e-06,-6.86594e-08,-6.86759e-08,-6.86594e-08,2.20458e-07,2163.27,3128.2,-369.793,3128.2,-6901.27,-369.703,-369.793,-369.703,121.798,10,176,315,329,330,523
8589.69,1.06349e-06,1.48498e-07,6.33248e-07,9.99091e-09,6.33248e-07,-8.56659e-07,5.32484e-08,9.99091e-09,5.32484e-08,4.04328e-07,-427.431,3409.8,53.7966,3409.8,-5839.82,286.723,53.7966,286.723,950.117,10,27,321,329,330,524
8214.4,1.01702e-06,2.8647e-07,7.28456e-07,5.90779e-08,7.28456e-07,-6.67391e-07,3.72297e-08,5.90779e-08,3.72297e-08,5.20165e-09,25.1974,3922.46,318.112,3922.46,-5110.98,200.467,318.112,200.467,-1489.33,10,242,245,265,330,525
7276.88,9.00946e-07,-2.92327e-08,6.74723e-07,3.98091e-08,6.74723e-07,-5.67142e-07,5.21746e-08,3.98091e-08,5.21746e-08,1.82074e-07,-1830.55,3633.13,214.357,3633.13,-4726.99,280.94,214.357,280.94,-692.746,10,28,171,242,330,526
33913.1,4.19878e-06,2.43131e-06,-2.32127e-06,1.04688e-06,-2.32127e-06,-1.885e-06,-1.40581e-06,1.04688e-06,-1.40581e-06,8.31944e-07,18657.6,-12499.1,5637.08,-12499.1,-4584.22,-7569.65,5637.08,-7569.65,10045.6,10,10,141,142,257,527
7235.82,8.95862e-07,2.27371e-07,-5.08192e-07,9.08744e-08,-5.08192e-07,-7.51969e-07,1.80201e-07,9.08744e-08,1.80201e-07,1.72996e-07,-195.624,-2736.42,489.323,-2736.42,-5469,970.313,489.323,970.313,-488.418,10,207,208,249,295,528
8328.45,1.03114e-06,4.03816e-07,-3.68721e-07,4.96415e-08,-3.68721e-07,-1.03902e-06,2.54343e-07,4.96415e-08,2.54343e-07,1.53208e-07,227.872,-1985.42,267.3,-1985.42,-7541.24,1369.54,267.3,1369.54,-1121.55,10,248,295,331,332,529
8691.19,1.07605e-06,5.50149e-07,-6.45377e-07,-3.99588e-08,-6.45377e-07,-3.90206e-07,-4.78349e-07,-3.99588e-08,-4.78349e-07,1.15668e-07,4075.37,-3475.1,-215.161,-3475.1,-988.078,-2575.72,-215.161,-2575.72,1735.86,10,11,209,210,279,530
7975.67,9.87462e-07,3.58059e-07,-4.16855e-07,-8.90163e-08,-4.16855e-07,-1.03776e-06,1.42456e-07,-8.90163e-08,1.42456e-07,1.61557e-08,-751.699,-2244.6,-479.319,-2244.6,-8267.67,767.072,-479.319,767.072,-2592.72,10,224,248,294,295,531
9442.44,1.16906e-06,4.21884e-07,-5.01497e-07,5.14245e-08,-5.01497e-07,-1.15606e-06,3.6584e-08,5.14245e-08,3.6584e-08,2.97164e-07,506.825,-2700.37,276.901,-2700.37,-7989.79,196.992,276.901,196.992,-164.746,10,224,291,294,295,532
7145.69,8.84704e-07,-2.12878e-08,-5.63404e-07,-1.16626e-08,-5.63404e-07,-7.55475e-07,1.75879e-07,-1.16626e-08,1.75879e-07,1.69583e-07,-2566.7,-3033.71,-62.7999,-3033.71,-6520.03,947.039,-62.7999,947.039,-1538.94,10,201,208,249,295,533
10230.9,1.26669e-06,2.53634e-07,-5.29654e-07,-1.04725e-07,-5.29654e-07,-1.30798e-06,-3.152e-08,-1.04725e-07,-3.152e-08,4.23442e-07,-1182.15,-2851.99,-563.904,-2851.99,-9590.84,-169.721,-563.904,-169.721,-267.804,10,291,296,317,324,534
7428.55,9.19726e-07,4.76265e-07,-5.87918e-07,1.41291e-07,-5.87918e-07,-5.04488e-07,8.03645e-08,1.41291e-07,8.03645e-08,2.42108e-07,3428.26,-3165.71,760.797,-3165.71,-1852.72,432.733,760.797,432.733,2167.41,10,48,49,182,296,535
11828.6,1.46449e-06,3.44081e-07,6.25138e-07,-1.70309e-07,6.25138e-07,-1.39267e-06,-3.48536e-08,-1.70309e-07,-3.48536e-08,6.16032e-07,105.853,3366.13,-917.049,3366.13,-9245.9,-187.671,-917.049,-187.671,1570.21,10,263,267,326,329,536
11451.8,1.41784e-06,5.97447e-07,6.19722e-07,-2.37599e-07,6.19722e-07,-1.25427e-06,-1.62113e-07,-2.37599e-07,-1.62113e-07,4.13939e-07,2236.11,3336.97,-1279.38,3336.97,-7734.68,-872.916,-1279.38,-872.916,1247.99,10,25,26,326,329,537
8247.75,1.02115e-06,3.92961e-07,5.10285e-07,-2.51774e-08,5.10285e-07,-8.32999e-07,-2.41346e-07,-2.51774e-08,-2.41346e-07,2.90989e-07,1514.01,2747.69,-135.57,2747.69,-5087.32,-1299.56,-135.57,-1299.56,964.93,10,25,175,315,329,538
8594.71,1.06411e-06,3.0016e-07,2.96925e-07,-5.60413e-08,2.96925e-07,-1.12311e-06,1.28669e-07,-5.60413e-08,1.28669e-07,4.28096e-07,21.6417,1598.83,-301.761,1598.83,-7642.1,692.834,-301.761,692.834,710.532,10,26,27,321,329,539
9381.92,1.16157e-06,6.01521e-07,5.51836e-07,-8.11242e-08,5.51836e-07,-9.43101e-07,1.87774e-07,-8.11242e-08,1.87774e-07,2.84537e-07,3008.58,2971.42,-436.823,2971.42,-5308.62,1011.09,-436.823,1011.09,1301.75,10,27,176,329,330,540
8877.67,1.09914e-06,1.51288e-07,-4.83849e-07,-2.15476e-07,-4.83849e-07,-1.14725e-06,-8.37133e-08,-2.15476e-07,-8.37133e-08,2.70756e-07,-2114.08,-2605.34,-1160.26,-2605.34,-9106.19,-450.764,-1160.26,-450.764,-1470.79,10,224,226,290,291,541
13078.8,1.61928e-06,3.34596e-07,-7.67516e-07,-6.43725e-08,-7.67516e-07,-1.47871e-06,-3.23175e-07,-6.43725e-08,-3.23175e-07,5.8578e-07,-453.168,-4132.78,-346.621,-4132.78,-10217.1,-1740.17,-346.621,-1740.17,899.361,10,281,292,298,317,542
7690.67,9.52177e-07,1.95086e-07,-5.48191e-07,-1.6112e-07,-5.48191e-07,-7.31518e-07,-1.48729e-07,-1.6112e-07,-1.48729e-07,3.23575e-07,190.84,-2951.8,-867.569,-2951.8,-4798.57,-800.85,-867.569,-800.85,882.702,10,180,219,298,324,543
8898.01,1.10166e-06,5.02138e-08,-5.77633e-07,-5.49148e-08,-5.77633e-07,-7.77761e-07,-4.90891e-07,-5.49148e-08,-4.90891e-07,3.31644e-07,-1328.46,-3110.33,-295.694,-3110.33,-5786.8,-2643.26,-295.694,-2643.26,186.93,10,232,292,298,299,544
9512.74,1.17777e-06,3.56007e-07,-8.09823e-07,-1.37679e-07,-8.09823e-07,-7.61107e-07,-2.05913e-07,-1.37679e-07,-2.05913e-07,-1.92858e-08,203.087,-4360.59,-741.345,-4360.59,-5812.15,-1108.76,-741.345,-1108.76,-1817.72,10,226,232,292,324,545
5907.3,7.3138e-07,2.27372e-07,-8.03351e-08,1.11044e-07,-8.03351e-08,-6.89879e-07,3.82759e-07,1.11044e-07,3.82759e-07,4.5665e-08,-459.098,-432.573,597.928,-432.573,-5398.15,2061.01,597.928,2061.01,-1437.52,10,204,206,252,331,546
5743.14,7.11055e-07,0,-2.53161e-07,0,-2.53161e-07,-8.19996e-07,3.01625e-07,0,3.01625e-07,0,-3311.52,-1363.18,-0.000822336,-1363.18,-7726.9,1624.14,-0.000822336,1624.14,-3311.52,10,248,252,253,331,547
9268.25,1.1475e-06,4.63335e-08,-5.52336e-07,-3.57486e-07,-5.52336e-07,-6.3879e-07,-5.15353e-07,-3.57486e-07,-5.15353e-07,4.21591e-07,-440.555,-2974.11,-1924.92,-2974.11,-4129.69,-2774.98,-1924.92,-2774.98,1580.06,10,12,140,146,301,548
5743.14,7.11055e-07,0,-2.53161e-07,0,-2.53161e-07,-8.19996e-07,3.01625e-07,0,3.01625e-07,0,-3311.52,-1363.18,-0.000822336,-1363.18,-7726.9,1624.14,-0.000822336,1624.14,-3311.52,10,203,204,252,331,549
5743.14,7.11055e-07,0,-2.53161e-07,0,-2.53161e-07,-8.19996e-07,3.01625e-07,0,3.01625e-07,0,-3311.52,-1363.18,-0.000822336,-1363.18,-7726.9,1624.14,-0.000822336,1624.14,-3311.52,10,248,249,253,331,550
11555.6,1.43069e-06,9.68395e-07,-3.05266e-07,3.04007e-07,-3.05266e-07,-1.17963e-06,3.99287e-07,3.04007e-07,3.99287e-07,2.25838e-07,5273.41,-1643.74,1636.96,-1643.74,-6292.86,2150.01,1636.96,2150.01,1275.02,10,45,205,331,333,551
6985.93,8.64924e-07,3.38486e-07,-3.90062e-07,7.42639e-08,-3.90062e-07,-7.76838e-07,2.71917e-07,7.42639e-08,2.71917e-07,1.62847e-08,118.105,-2100.33,399.882,-2100.33,-5887.49,1464.17,399.882,1464.17,-1616.82,10,203,207,253,331,552
9164.36,1.13463e-06,3.34799e-07,-2.5241e-07,-1.48058e-08,-2.5241e-07,-1.0357e-06,5.78905e-07,-1.48058e-08,5.78905e-07,1.88763e-07,-265.494,-1359.13,-79.7237,-1359.13,-7645.11,3117.19,-79.7237,3117.19,-1051.84,10,252,331,333,334,553
12444,1.54068e-06,6.84598e-07,-4.46559e-07,8.60688e-08,-4.46559e-07,-1.54113e-06,3.50398e-07,8.60688e-08,3.50398e-07,3.69636e-07,1719.98,-2404.55,463.448,-2404.55,-10264.7,1886.76,463.448,1886.76,24.0306,10,274,297,332,333,554
14124.2,1.74871e-06,7.0091e-07,-4.54957e-07,5.97938e-08,-4.54957e-07,-1.86406e-06,3.33215e-07,5.97938e-08,3.33215e-07,4.09077e-07,728.829,-2449.77,321.967,-2449.77,-13082.5,1794.24,321.967,1794.24,-842.58,10,53,274,297,333,555
15577.3,1.92861e-06,1.08223e-06,-4.41579e-07,1.73209e-07,-4.41579e-07,-1.89011e-06,3.65193e-07,1.73209e-07,3.65193e-07,4.13258e-07,4233.65,-2377.73,932.664,-2377.73,-11771.3,1966.42,932.664,1966.42,631.513,10,53,272,274,333,556
8301.33,1.02778e-06,4.482e-07,-1.86528e-07,-6.04564e-09,-1.86528e-07,-1.1218e-06,2.58732e-07,-6.04564e-09,2.58732e-07,1.35187e-07,239.023,-1004.38,-32.5539,-1004.38,-8214.82,1393.17,-32.5539,1393.17,-1446.43,10,252,270,332,333,557
8806.46,1.09032e-06,3.54589e-07,-3.58563e-07,-1.56521e-09,-3.58563e-07,-1.15144e-06,3.13731e-07,-1.56521e-09,3.13731e-07,1.42606e-07,-732.839,-1930.73,-8.4284,-1930.73,-8842.25,1689.32,-8.4284,1689.32,-1874.28,10,252,331,332,333,558
11496.9,1.42343e-06,4.90336e-07,-1.46052e-07,9.45163e-08,-1.46052e-07,-1.61126e-06,3.09563e-07,9.45163e-08,3.09563e-07,3.71221e-07,-387.372,-786.433,508.934,-786.433,-11703.7,1666.88,508.934,1666.88,-1028.76,10,270,274,332,333,559
13375.1,1.65596e-06,6.74159e-07,-1.43407e-07,-1.35025e-07,-1.43407e-07,-1.57787e-06,7.59742e-07,-1.35025e-07,7.59742e-07,2.68032e-07,1062.91,-772.189,-727.061,-772.189,-11063.4,4090.92,-727.061,4090.92,-1123.93,10,44,272,333,335,560
15405.7,1.90738e-06,8.46369e-07,-1.99522e-07,2.42308e-07,-1.99522e-07,-2.08677e-06,3.36568e-07,2.42308e-07,3.36568e-07,4.27565e-07,1274.74,-1074.35,1304.74,-1074.35,-14519.1,1812.29,1304.74,1812.29,-980.359,10,270,272,274,333,561
8670.65,1.07351e-06,6.72219e-07,4.9268e-08,7.47925e-09,4.9268e-08,-9.82815e-07,4.07978e-07,7.47925e-09,4.07978e-07,2.3034e-08,2458.33,265.289,40.273,265.289,-6453.4,2196.81,40.273,2196.81,-1037.29,10,190,333,334,335,562
10779.7,1.33463e-06,7.37928e-07,-2.80878e-07,6.78291e-08,-2.80878e-07,-1.29548e-06,4.33929e-07,6.78291e-08,4.33929e-07,2.35002e-08,1816.7,-1512.42,365.233,-1512.42,-9132.45,2336.54,365.233,2336.54,-2030.23,10,44,190,333,335,563
16740.4,2.07262e-06,-1.59158e-07,1.56469e-06,-9.05433e-08,1.56469e-06,-3.34208e-07,-5.42887e-07,-9.05433e-08,-5.42887e-07,9.31848e-07,913.767,8425.24,-487.55,8425.24,-28.8321,-2923.23,-487.55,-2923.23,6788.4,10,25,63,66,326,564
9479.68,1.17367e-06,5.59789e-07,-1.73462e-07,-1.18785e-07,-1.73462e-07,-1.09121e-06,-5.36571e-07,-1.18785e-07,-5.36571e-07,-2.33697e-08,773.743,-934.029,-639.611,-934.029,-8116.26,-2889.23,-639.611,-2889.23,-2366.34,10,235,240,310,327,565
10281.9,1.27299e-06,3.71762e-07,-4.45017e-07,3.95238e-08,-4.45017e-07,-9.03415e-07,-6.99657e-07,3.95238e-08,-6.99657e-07,3.33522e-07,1201.64,-2396.24,212.822,-2396.24,-5664.7,-3767.38,212.822,-3767.38,995.734,10,236,293,299,310,566
10619.8,1.31483e-06,-5.06868e-07,-8.72201e-07,-1.56367e-07,-8.72201e-07,-7.1166e-07,-3.47597e-07,-1.56367e-07,-3.47597e-07,4.58568e-07,-5798.37,-4696.47,-841.972,-4696.47,-6901.11,-1871.68,-841.972,-1871.68,-599.863,10,12,13,146,298,567
12896.9,1.59676e-06,6.84391e-07,-3.38542e-07,-1.01211e-07,-3.38542e-07,-1.29843e-06,-7.76897e-07,-1.01211e-07,-7.76897e-07,4.69377e-07,3100.97,-1822.92,-544.984,-1822.92,-7575.74,-4183.29,-544.984,-4183.29,1943.2,10,279,303,310,311,568
10505.2,1.30064e-06,4.982e-07,-8.4004e-08,-6.73205e-09,-8.4004e-08,-7.34048e-07,-9.25117e-07,-6.73205e-09,-9.25117e-07,1.6241e-07,2386.02,-452.328,-36.2485,-452.328,-4249.16,-4981.4,-36.2485,-4981.4,577.927,10,240,258,302,327,569
7632.01,9.44915e-07,0,2.92202e-07,0,2.92202e-07,-7.03e-07,-6.47711e-07,0,-6.47711e-07,0,-2839.04,1573.39,-0.00203821,1573.39,-6624.44,-3487.68,-0.00203821,-3487.68,-2839.04,10,233,234,238,307,570
11080.1,1.37182e-06,5.8736e-09,2.25808e-07,-5.73763e-08,2.25808e-07,-9.98093e-07,-9.64544e-07,-5.73763e-08,-9.64544e-07,2.28056e-07,-3054.43,1215.89,-308.953,1215.89,-8460.42,-5193.7,-308.953,-5193.7,-1858.05,10,166,187,188,285,571
8354.38,1.03435e-06,2.39967e-07,4.63579e-07,-3.1551e-08,4.63579e-07,-6.68082e-07,-6.06209e-07,-3.1551e-08,-6.06209e-07,-1.7474e-08,-507.368,2496.19,-169.893,2496.19,-5396.88,-3264.2,-169.893,-3264.2,-1893.59,10,238,304,307,308,572
8936.24,1.10639e-06,3.17317e-07,1.9796e-07,6.05767e-08,1.9796e-07,-7.69854e-07,-7.19475e-07,6.05767e-08,-7.19475e-07,2.05316e-07,710.227,1065.94,326.181,1065.94,-5143.78,-3874.1,326.181,-3874.1,107.148,10,258,260,285,305,573
8362.63,1.03537e-06,0,2.61136e-07,0,2.61136e-07,-4.70515e-07,-8.13641e-07,0,-8.13641e-07,0,-1900.16,1406.11,-0.00228815,1406.11,-4433.71,-4381.14,-0.00228815,-4381.14,-1900.16,10,187,238,239,285,574
8062.93,9.98267e-07,1.43031e-07,3.89804e-07,1.07639e-08,3.89804e-07,-6.23001e-07,-6.22395e-07,1.07639e-08,-6.22395e-07,1.88719e-07,-406.046,2098.94,57.9561,2098.94,-4530.84,-3351.36,57.9561,-3351.36,-160.028,10,164,165,238,285,575
13184.6,1.63237e-06,5.40711e-07,-7.36136e-07,1.34161e-08,-7.36136e-07,-1.60363e-06,-1.41519e-07,1.34161e-08,-1.41519e-07,3.96153e-07,218.771,-3963.81,72.2412,-3963.81,-11327.7,-762.022,72.2412,-762.022,-559.617,10,278,291,292,317,576
9614.26,1.19034e-06,3.63119e-07,-5.23633e-07,1.38687e-07,-5.23633e-07,-9.58239e-07,-5.43352e-07,1.38687e-07,-5.43352e-07,3.79422e-08,-294.893,-2819.56,746.776,-2819.56,-7409.91,-2925.74,746.776,-2925.74,-2045.85,10,231,236,293,299,577
8486.27,1.05068e-06,7.4183e-08,-6.25546e-07,7.76561e-08,-6.25546e-07,-5.7144e-07,-5.45431e-07,7.76561e-08,-5.45431e-07,4.58544e-08,-1423.53,-3368.33,418.151,-3368.33,-4899.98,-2936.94,418.151,-2936.94,-1576.07,10,232,237,299,300,578
8767.16,1.08546e-06,2.55685e-07,-1.37324e-07,-3.54621e-08,-1.37324e-07,-9.01496e-07,-6.67858e-07,-3.54621e-08,-6.67858e-07,1.75331e-07,-523.264,-739.435,-190.949,-739.435,-6754.25,-3596.16,-190.949,-3596.16,-955.936,10,211,255,286,302,579
10727.9,1.32822e-06,9.39705e-07,-3.42066e-07,-1.52962e-07,-3.42066e-07,-1.04613e-06,-4.08709e-07,-1.52962e-07,-4.08709e-07,2.45766e-07,5622.67,-1841.9,-823.641,-1841.9,-5070.26,-2200.73,-823.641,-2200.73,1886.08,10,11,141,256,279,580
8024.06,9.93455e-07,3.14415e-07,-4.46678e-07,-2.59187e-08,-4.46678e-07,-7.13242e-07,-4.64292e-07,-2.59187e-08,-4.64292e-07,2.26385e-07,996.593,-2405.19,-139.56,-2405.19,-4536.95,-2500.03,-139.56,-2500.03,522.586,10,209,300,301,309,581
9411.69,1.16526e-06,3.30604e-07,-3.9622e-07,-6.29019e-08,-3.9622e-07,-8.61337e-07,-6.65767e-07,-6.29019e-08,-6.65767e-07,1.55322e-07,264.079,-2133.49,-338.701,-2133.49,-6154.07,-3584.9,-338.701,-3584.9,-679.741,10,236,299,309,310,582
7383.47,9.14144e-07,3.68032e-07,-3.51691e-07,-5.76741e-08,-3.51691e-07,-5.57274e-07,-5.02778e-07,-5.76741e-08,-5.02778e-07,2.19531e-07,2104.02,-1893.72,-310.551,-1893.72,-2878.4,-2707.27,-310.551,-2707.27,1304.41,10,140,209,301,309,583
8234.07,1.01946e-06,3.42812e-07,-3.4809e-07,-7.3162e-08,-3.4809e-07,-7.47777e-07,-5.25646e-07,-7.3162e-08,-5.25646e-07,2.85265e-07,1362.5,-1874.33,-393.947,-1874.33,-4509.91,-2830.4,-393.947,-2830.4,1052.63,10,210,254,279,302,584
16892.6,2.09147e-06,1.02177e-06,-8.14051e-07,-8.10639e-08,-8.14051e-07,-1.90031e-06,-4.61136e-07,-8.10639e-08,-4.61136e-07,4.50907e-07,3774.81,-4383.36,-436.5,-4383.36,-11959.5,-2483.04,-436.5,-2483.04,700.93,10,144,146,281,311,585
21353.8,2.64381e-06,1.25666e-06,4.90839e-07,-3.41882e-07,4.90839e-07,-2.59896e-06,3.35351e-07,-3.41882e-07,3.35351e-07,1.10837e-06,5821.83,2642.99,-1840.9,2642.99,-14939.2,1805.72,-1840.9,1805.72,5023.34,10,34,39,272,335,586
13420.5,1.66159e-06,6.86415e-07,-4.58391e-07,-1.76881e-07,-4.58391e-07,-1.45547e-06,-7.06391e-07,-1.76881e-07,-7.06391e-07,3.57128e-07,2032.52,-2468.26,-952.439,-2468.26,-9500.68,-3803.65,-952.439,-3803.65,259.44,10,144,145,311,328,587
9402.85,1.16416e-06,5.84216e-07,-3.37809e-07,-1.27048e-07,-3.37809e-07,-1.0201e-06,-4.13958e-07,-1.27048e-07,-4.13958e-07,2.44812e-07,2374.14,-1818.97,-684.107,-1818.97,-6264.48,-2229,-684.107,-2229,546.582,10,141,256,257,279,588
7987.22,9.88893e-07,7.6608e-09,-4.53107e-07,-5.65421e-08,-4.53107e-07,-6.24385e-07,-5.8815e-07,-5.65421e-08,-5.8815e-07,1.78891e-07,-1726.93,-2439.81,-304.455,-2439.81,-5130.26,-3166.96,-304.455,-3166.96,-804.917,10,236,237,299,309,589
8430.76,1.04381e-06,1.00662e-07,-4.02292e-07,-2.39089e-07,-4.02292e-07,-7.39868e-07,-5.17038e-07,-2.39089e-07,-5.17038e-07,3.60538e-07,-583.372,-2166.19,-1287.4,-2166.19,-5109.31,-2784.05,-1287.4,-2784.05,815.965,10,12,298,300,301,590
8132,1.00682e-06,4.0181e-07,-3.94995e-07,-1.13116e-07,-3.94995e-07,-7.83962e-07,-4.22519e-07,-1.13116e-07,-4.22519e-07,2.3815e-07,1582.04,-2126.89,-609.084,-2126.89,-4802.89,-2275.1,-609.084,-2275.1,700.799,10,209,210,279,309,591
14939,1.84959e-06,8.48941e-07,-4.95962e-07,-4.6874e-07,-4.95962e-07,-1.46755e-06,-5.95671e-07,-4.6874e-07,-5.95671e-07,7.91168e-07,5268.06,-2670.57,-2523.98,-2670.57,-7205.34,-3207.46,-2523.98,-3207.46,4956.98,10,142,145,311,328,592
13785,1.70672e-06,5.47408e-07,-2.10721e-07,-3.42295e-08,-2.10721e-07,-1.87158e-06,-5.84557e-07,-3.42295e-08,-5.84557e-07,3.39664e-07,-1028.34,-1134.65,-184.312,-1134.65,-14053.7,-3147.61,-184.312,-3147.61,-2146.96,10,293,310,327,328,593
8180.99,1.01288e-06,3.42393e-07,1.54439e-07,9.42389e-08,1.54439e-07,-7.45754e-07,-6.52022e-07,9.42389e-08,-6.52022e-07,1.44351e-08,272.987,831.597,507.44,831.597,-5586.27,-3510.89,507.44,-3510.89,-1492.94,10,235,239,258,307,594
11397,1.41106e-06,5.27332e-07,1.08996e-07,4.78427e-08,1.08996e-07,-1.16435e-06,-8.00874e-07,4.78427e-08,-8.00874e-07,2.87204e-07,1426.74,586.903,257.615,586.903,-7682.35,-4312.4,257.615,-4312.4,133.746,10,235,289,307,327,595
7802.78,9.66057e-07,0,7.33724e-07,0,7.33724e-07,-6.0063e-07,-2.03341e-07,0,-2.03341e-07,0,-2425.62,3950.82,-0.00160673,3950.82,-5659.8,-1094.91,-0.00160673,-1094.91,-2425.63,10,183,220,227,323,596
13057.5,1.61665e-06,6.82757e-07,4.4797e-07,2.40119e-07,4.4797e-07,-1.44923e-06,-5.22439e-07,2.40119e-07,-5.22439e-07,5.5358e-07,2816.59,2412.15,1292.95,2412.15,-8663.36,-2813.13,1292.95,-2813.13,2121.02,10,289,312,313,319,597
15489.1,1.91769e-06,1.24366e-06,1.42139e-07,-5.54083e-08,1.42139e-07,-1.64321e-06,-7.55741e-07,-5.54083e-08,-7.55741e-07,2.9087e-07,6257.68,765.366,-298.351,765.366,-9287,-4069.37,-298.351,-4069.37,1127.28,10,289,312,314,327,598
26499.4,3.28087e-06,1.16914e-06,-9.30823e-08,2.34812e-07,-9.30823e-08,-3.80201e-06,-3.7771e-07,2.34812e-07,-3.7771e-07,9.34269e-07,-564.393,-501.219,1264.38,-501.219,-27332.2,-2033.85,1264.38,-2033.85,-1829.11,10,56,288,312,314,599
20178.4,2.49828e-06,1.00109e-06,-4.04025e-07,-1.88212e-08,-4.04025e-07,-2.55145e-06,-6.50825e-07,-1.88212e-08,-6.50825e-07,9.02986e-07,2776.04,-2175.53,-101.346,-2175.53,-16353,-3504.45,-101.346,-3504.45,2247.78,10,276,281,287,328,600
19685,2.43718e-06,9.52921e-07,-4.05936e-07,-1.72013e-07,-4.05936e-07,-2.58178e-06,-7.33719e-07,-1.72013e-07,-7.33719e-07,5.25706e-07,676.032,-2185.83,-926.23,-2185.83,-18357,-3950.81,-926.23,-3950.81,-1624.36,10,143,144,281,328,601
15320.9,1.89688e-06,1.0291e-06,-3.5627e-07,-1.15449e-07,-3.5627e-07,-1.32656e-06,-1.0205e-06,-1.15449e-07,-1.0205e-06,4.74916e-07,6257.94,-1918.38,-621.647,-1918.38,-6426.41,-5494.97,-621.647,-5494.97,3273.86,10,142,303,314,328,602
8830.32,1.09328e-06,6.32647e-07,1.70648e-07,5.26859e-08,1.70648e-07,-9.89281e-07,4.29839e-07,5.26859e-08,4.29839e-07,7.92955e-08,2286.54,918.876,283.693,918.876,-6446.93,2314.52,283.693,2314.52,-693.053,10,251,334,335,336,603
8794.16,1.0888e-06,6.29155e-07,1.37033e-07,-8.98427e-08,1.37033e-07,-1.04239e-06,3.26055e-07,-8.98427e-08,3.26055e-07,2.08483e-07,2560.86,737.868,-483.768,737.868,-6439.78,1755.68,-483.768,1755.68,295.707,10,251,270,335,336,604
7031,8.70504e-07,0,4.81254e-08,1.80466e-08,4.81254e-08,-1.05253e-06,3.42623e-07,1.80466e-08,3.42623e-07,1.90703e-07,-3480.45,259.137,97.1741,259.137,-9147.92,1844.89,97.1741,1844.89,-2453.59,10,251,252,270,335,605
19543.7,2.41969e-06,1.08068e-06,3.4779e-07,2.25118e-07,3.4779e-07,-2.29212e-06,-9.31024e-07,2.25118e-07,-9.31024e-07,6.29738e-07,3469.81,1872.72,1212.18,1872.72,-14691.4,-5013.22,1212.18,-5013.22,1041.66,10,64,65,67,312,606
9268.97,1.14759e-06,7.16056e-07,-6.15417e-08,1.38751e-07,-6.15417e-08,-1.07589e-06,3.34066e-07,1.38751e-07,3.34066e-07,2.08594e-07,3244.92,-331.377,747.118,-331.377,-6404.01,1798.82,747.118,1798.82,512.43,10,252,270,333,335,607
13693.7,1.69541e-06,-4.46545e-07,1.22858e-06,-2.36892e-07,1.22858e-06,-8.58073e-07,6.33841e-08,-2.36892e-07,6.33841e-08,6.25097e-07,-5148.71,6615.43,-1275.57,6615.43,-7364.64,341.302,-1275.57,341.302,621.671,10,26,38,263,326,608
10865.5,1.34525e-06,3.01955e-07,5.24414e-07,-7.02176e-08,5.24414e-07,-1.41134e-06,7.66982e-08,-7.02176e-08,7.66982e-08,4.51694e-07,-1030.16,2823.77,-378.095,2823.77,-10255.6,412.991,-378.095,412.991,-223.869,10,263,265,267,329,609
20411.6,2.52715e-06,8.92228e-07,1.21792e-06,-5.96317e-08,1.21792e-06,-2.29981e-06,4.45351e-07,-5.96317e-08,4.45351e-07,5.89299e-07,1499.63,6558.05,-321.098,6558.05,-15688.3,2398.05,-321.098,2398.05,-131.523,10,24,38,325,326,610
11705.6,1.44927e-06,4.30369e-07,5.25648e-07,4.62907e-08,5.25648e-07,-1.34091e-06,-3.99106e-07,4.62907e-08,-3.99106e-07,5.74072e-07,958.517,2830.41,249.257,2830.41,-8579.17,-2149.03,249.257,-2149.03,1732.3,10,267,313,322,326,611
11166.3,1.38249e-06,4.10387e-07,5.56452e-07,-8.39132e-08,5.56452e-07,-1.36879e-06,-3.09136e-07,-8.39132e-08,-3.09136e-07,3.51181e-07,-242.495,2996.28,-451.841,2996.28,-9822.71,-1664.58,-451.841,-1664.58,-561.299,10,267,315,322,326,612
8324.15,1.03061e-06,-4.13495e-09,3.34671e-07,1.00113e-07,3.34671e-07,-7.38444e-07,-6.40211e-07,1.00113e-07,-6.40211e-07,2.53007e-07,-1999.39,1802.07,539.068,1802.07,-5953.37,-3447.29,539.068,-3447.29,-614.774,10,233,234,307,319,613
17502.6,2.167e-06,9.41195e-07,1.10697e-06,-2.82527e-07,1.10697e-06,-5.84194e-07,-1.27782e-06,-2.82527e-07,-1.27782e-06,2.59521e-07,7557.73,5960.6,-1521.29,5960.6,-655.896,-6880.54,-1521.29,-6880.54,3887.17,10,60,61,147,283,614
8833.61,1.09368e-06,6.21595e-07,3.73889e-07,2.94143e-07,3.73889e-07,-8.93015e-07,-2.66694e-07,2.94143e-07,-2.66694e-07,1.44433e-07,2834.21,2013.25,1583.85,2013.25,-5321.39,-1436.05,1583.85,-1436.05,264.877,10,170,283,304,305,615
8669.45,1.07336e-06,5.97073e-07,2.99738e-07,2.08399e-07,2.99738e-07,-9.52094e-07,-2.71789e-07,2.08399e-07,-2.71789e-07,2.3585e-07,2733.73,1613.97,1122.15,1613.97,-5607.94,-1463.48,1122.15,-1463.48,788.685,10,168,170,304,305,616
9614.2,1.19033e-06,2.6219e-07,6.41045e-07,3.82422e-08,6.41045e-07,-8.58406e-07,-4.28352e-07,3.82422e-08,-4.28352e-07,3.7904e-07,534.722,3451.78,205.918,3451.78,-5499.27,-2306.51,205.918,-2306.51,1163.91,10,189,227,320,322,617
18430.1,2.28182e-06,5.97057e-07,7.67229e-07,-1.1236e-07,7.67229e-07,-1.68236e-06,-1.0437e-06,-1.1236e-07,-1.0437e-06,1.11462e-06,3333.24,4131.23,-605.017,4131.23,-8940.56,-5619.94,-605.017,-5619.94,6120.09,10,60,61,65,282,618
8389.93,1.03875e-06,3.80261e-07,2.32783e-07,5.30909e-08,2.32783e-07,-8.50501e-07,-5.91492e-07,5.30909e-08,-5.91492e-07,3.14835e-08,275.648,1253.45,285.873,1253.45,-6351.54,-3184.96,285.873,-3184.96,-1602.38,10,258,285,305,307,619
7943.09,9.8343e-07,1.96947e-07,3.50767e-07,-5.15708e-08,3.50767e-07,-6.27698e-07,-5.98683e-07,-5.15708e-08,-5.98683e-07,2.46868e-07,317.873,1888.75,-277.692,1888.75,-4122.54,-3223.67,-277.692,-3223.67,586.677,10,164,238,285,304,620
15178.1,1.87919e-06,9.59048e-07,2.99368e-07,-1.09712e-07,2.99368e-07,-1.93001e-06,4.62574e-07,-1.09712e-07,4.62574e-07,3.73987e-07,2753.23,1611.99,-590.76,1611.99,-12803.2,2490.79,-590.76,2490.79,-397.102,10,264,270,272,335,621
16450.8,2.03676e-06,1.05271e-06,4.35173e-07,2.5704e-08,4.35173e-07,-2.05211e-06,4.61027e-07,2.5704e-08,4.61027e-07,4.47012e-07,3437.59,2343.24,138.405,2343.24,-13280.6,2482.46,138.405,2482.46,176.156,10,39,264,272,335,622
15499.6,1.91899e-06,7.70906e-07,5.47415e-07,1.16326e-07,5.47415e-07,-1.98145e-06,2.10398e-07,1.16326e-07,2.10398e-07,6.32356e-07,1816.03,2947.63,626.37,2947.63,-13004.3,1132.92,626.37,1132.92,1069.99,10,40,263,264,277,623
11538,1.42851e-06,4.11076e-07,3.37041e-07,-1.13212e-08,3.37041e-07,-1.6898e-06,1.44536e-07,-1.13212e-08,1.44536e-07,2.97297e-07,-1750,1814.84,-60.9608,1814.84,-13062.4,778.272,-60.9608,778.272,-2362.65,10,262,265,269,271,624
8943.7,1.10731e-06,2.84394e-07,1.52958e-07,9.37034e-08,1.52958e-07,-8.30363e-07,-6.85263e-07,9.37034e-08,-6.85263e-07,2.94052e-07,513.981,823.617,504.556,823.617,-5488.57,-3689.88,504.556,-3689.88,565.99,10,167,260,285,305,625
10719.8,1.32722e-06,5.31848e-07,2.63532e-07,-9.61762e-08,2.63532e-07,-1.05621e-06,-7.54561e-07,-9.61762e-08,-7.54561e-07,9.5268e-08,1130.91,1419.02,-517.873,1419.02,-7420.17,-4063.02,-517.873,-4063.02,-1219.9,10,258,305,307,327,626
9379.94,1.16133e-06,5.48464e-07,2.4107e-07,9.72632e-08,2.4107e-07,-9.22937e-07,-5.76396e-07,9.72632e-08,-5.76396e-07,2.7248e-07,2541.36,1298.07,523.723,1298.07,-5381.57,-3103.66,523.723,-3103.66,1055.29,10,168,285,304,305,627
8578.3,1.06207e-06,3.45716e-07,1.75573e-07,6.49323e-08,1.75573e-07,-7.13755e-07,-7.08458e-07,6.49323e-08,-7.08458e-07,1.08003e-07,811.399,945.395,349.634,945.395,-4893.46,-3814.78,349.634,-3814.78,-468.59,10,239,258,285,307,628
10763.8,1.33266e-06,4.81645e-07,1.14101e-07,-5.27864e-08,1.14101e-07,-1.15072e-06,-7.6382e-07,-5.27864e-08,-7.6382e-07,1.1246e-07,345.589,614.39,-284.234,614.39,-8444.09,-4112.88,-284.234,-4112.88,-1642.33,10,235,258,307,327,629
10241.5,1.26799e-06,2.46097e-07,2.49092e-07,-1.4635e-07,2.49092e-07,-1.14103e-06,-7.3946e-07,-1.4635e-07,-7.3946e-07,8.513e-08,-1945.25,1341.27,-788.039,1341.27,-9414.43,-3981.71,-788.039,-3981.71,-2811.99,10,235,240,258,327,630
9301.99,1.15167e-06,5.31858e-07,-1.04014e-07,-6.14946e-08,-1.04014e-07,-9.91634e-07,-6.03048e-07,-6.14946e-08,-6.03048e-07,9.98441e-08,1410.27,-560.073,-331.124,-560.073,-6793.16,-3247.18,-331.124,-3247.18,-915.957,10,258,261,286,302,631
11882.2,1.47113e-06,9.055e-07,3.56677e-08,-5.65738e-08,3.56677e-08,-1.04438e-06,-8.11447e-07,-5.65738e-08,-8.11447e-07,1.01543e-07,4724.98,192.057,-304.628,192.057,-5774.35,-4369.33,-304.628,-4369.33,395.989,10,258,259,303,327,632
8218.3,1.0175e-06,0,4.61496e-08,1.38644e-07,4.61496e-08,-7.39954e-07,-7.29778e-07,1.38644e-07,-7.29778e-07,1.36991e-07,-2435.05,248.498,746.547,248.498,-6419.43,-3929.58,746.547,-3929.58,-1697.41,10,239,240,258,286,633
10100.7,1.25056e-06,5.27604e-07,7.46188e-08,1.80342e-07,7.46188e-08,-1.46185e-06,-2.29931e-07,1.80342e-07,-2.29931e-07,5.96033e-08,-691.289,401.792,971.072,401.792,-11403.8,-1238.09,971.072,-1238.09,-3211.3,10,222,229,268,287,634
16483.9,2.04086e-06,7.60968e-07,3.20853e-07,-1.68647e-07,3.20853e-07,-2.2626e-06,-2.08453e-07,-1.68647e-07,-2.08453e-07,6.60026e-07,698.693,1727.67,-908.103,1727.67,-15582.1,-1122.44,-908.103,-1122.44,155.158,10,266,267,289,318,635
10847.1,1.34297e-06,3.94426e-07,3.5701e-07,-1.43422e-07,3.5701e-07,-1.34783e-06,-6.02958e-07,-1.43422e-07,-6.02958e-07,1.99689e-08,-1645.81,1922.37,-772.274,1922.37,-11027.2,-3246.7,-772.274,-3246.7,-3662.12,10,229,235,289,319,636
14042.6,1.73861e-06,5.74496e-07,-2.47918e-07,-2.42896e-08,-2.47918e-07,-1.87339e-06,-6.19956e-07,-2.42896e-08,-6.19956e-07,3.34366e-07,-801.782,-1334.94,-130.79,-1334.94,-13982.7,-3338.23,-130.79,-3338.23,-2094.79,10,289,293,327,328,637
19935.8,2.46824e-06,1.10944e-06,5.29092e-07,-7.03074e-08,5.29092e-07,-2.2777e-06,-7.97375e-07,-7.03074e-08,-7.97375e-07,9.45867e-07,5075.71,2848.97,-378.576,2848.97,-13162.7,-4293.56,-378.576,-4293.56,4194.95,10,288,289,312,318,638
8183.66,1.01321e-06,5.49262e-07,-1.43042e-08,1.31461e-08,-1.43042e-08,-1.15815e-06,1.48249e-07,1.31461e-08,1.48249e-07,-6.70938e-08,227.619,-77.0226,70.7873,-77.0226,-8966.17,798.262,70.7873,798.262,-3091.23,10,225,247,270,294,639
11241.7,1.39183e-06,5.07491e-07,2.57755e-07,-6.66031e-08,2.57755e-07,-1.55337e-06,2.34857e-07,-6.66031e-08,2.34857e-07,3.68826e-07,-1.61016,1387.91,-358.632,1387.91,-11098.6,1264.62,-358.632,1264.62,-748.268,10,264,269,270,336,640
12789.7,1.58348e-06,5.23515e-07,1.33937e-07,2.69775e-08,1.33937e-07,-1.89275e-06,1.19331e-07,2.69775e-08,1.19331e-07,3.94378e-07,-1118,721.194,145.264,721.194,-14128.7,642.554,145.264,642.554,-1813.36,10,262,270,271,273,641
9474.57,1.17304e-06,4.72092e-07,2.3405e-07,-5.07064e-08,2.3405e-07,-1.29039e-06,1.72455e-07,-5.07064e-08,1.72455e-07,3.01507e-07,454.987,1260.27,-273.035,1260.27,-9035.29,928.603,-273.035,928.603,-463.546,10,244,269,270,271,642
17344.5,2.14742e-06,1.33995e-06,3.18598e-07,-1.11234e-07,3.18598e-07,-1.8972e-06,-6.16706e-07,-1.11234e-07,-6.16706e-07,7.38081e-07,7945.39,1715.53,-598.95,1715.53,-9485.39,-3320.74,-598.95,-3320.74,4704.54,10,59,60,65,282,643
20105.2,2.48921e-06,1.26356e-06,-8.97157e-07,9.81624e-08,-8.97157e-07,-2.29418e-06,3.23635e-07,9.81624e-08,3.23635e-07,7.84863e-07,5811.31,-4830.86,528.569,-4830.86,-13345.8,1742.65,528.569,1742.65,3233.69,10,35,53,274,275,644
24490.7,3.03218e-06,1.389e-06,4.3126e-07,-1.85718e-08,4.3126e-07,-3.27032e-06,4.73657e-07,-1.85718e-08,4.73657e-07,8.40556e-07,3276.04,2322.19,-100.005,2322.19,-21812.6,2550.47,-100.005,2550.47,322.896,10,35,39,272,277,645
13719.7,1.69863e-06,8.89151e-07,-3.35601e-07,1.20643e-08,-3.35601e-07,-1.54184e-06,6.43071e-07,1.20643e-08,6.43071e-07,3.67048e-07,3634.15,-1807.08,64.962,-1807.08,-9455.82,3462.69,64.962,3462.69,822.826,10,44,53,272,333,646
12925.8,1.60033e-06,6.3186e-07,4.32198e-07,3.14686e-08,4.32198e-07,-1.47405e-06,-6.87456e-07,3.14686e-08,-6.87456e-07,2.53508e-07,1024.92,2327.22,169.446,2327.22,-10314.6,-3701.68,169.446,-3701.68,-1012.36,10,306,307,312,319,647
7237.24,8.96039e-07,6.62416e-08,3.34421e-07,1.06834e-07,3.34421e-07,-8.14768e-07,-2.89208e-07,1.06834e-07,-2.89208e-07,4.02708e-07,-1039.9,1800.73,575.259,1800.73,-5783.8,-1557.27,575.259,-1557.27,771.848,10,62,163,306,320,648
13007,1.61039e-06,6.08855e-07,2.27455e-07,2.49332e-08,2.27455e-07,-1.34131e-06,-9.00821e-07,2.49332e-08,-9.00821e-07,2.59201e-07,1367.2,1224.76,134.255,1224.76,-9133.72,-4850.58,134.255,-4850.58,-515.555,10,305,307,312,327,649
15870.1,1.96486e-06,7.15601e-07,3.78098e-07,8.17813e-08,3.78098e-07,-2.19786e-06,1.18423e-07,8.17813e-08,1.18423e-07,6.11409e-07,336.326,2035.92,440.36,2035.92,-15351.5,637.669,440.36,637.669,-224.709,10,262,263,264,277,650
10814.3,1.33891e-06,6.02073e-07,4.45034e-08,5.78971e-09,4.45034e-08,-1.45227e-06,-1.64449e-07,5.78971e-09,-1.64449e-07,4.58699e-07,1660.87,239.632,31.1752,239.632,-9400.99,-885.493,31.1752,-885.493,888.852,10,222,268,273,287,651
9622.33,1.19133e-06,9.41483e-08,-1.67506e-07,2.0966e-07,-1.67506e-07,-1.33025e-06,-4.61071e-07,2.0966e-07,-4.61071e-07,2.86326e-07,-3328.68,-901.953,1128.94,-901.953,-10998.5,-2482.69,1128.94,-2482.69,-2293.87,10,229,230,287,293,652
11350.5,1.4053e-06,4.59971e-07,-2.02359e-07,2.93564e-08,-2.02359e-07,-1.69716e-06,1.78063e-07,2.93564e-08,1.78063e-07,2.37553e-07,-1560.24,-1089.62,158.073,-1089.62,-13175.6,958.8,158.073,958.8,-2757.88,10,270,274,294,332,653
7921.93,9.80809e-07,4.0193e-07,1.28934e-07,1.26668e-07,1.28934e-07,-1.13788e-06,2.28165e-07,1.26668e-07,2.28165e-07,-4.60942e-09,-826.467,694.262,682.059,694.262,-9117.74,1228.58,682.059,1228.58,-3015.53,10,244,247,269,270,654
7927.89,9.81547e-07,-1.44194e-08,2.04487e-07,-8.81591e-09,2.04487e-07,-1.22193e-06,1.87352e-07,-8.81591e-09,1.87352e-07,3.00072e-07,-3858.78,1101.08,-47.4701,1101.08,-10360.8,1008.82,-47.4701,1008.82,-2165.36,10,243,244,269,271,655
9076.52,1.12376e-06,4.49933e-07,6.16426e-07,8.58814e-09,6.16426e-07,-1.01938e-06,-2.24455e-08,8.58814e-09,-2.24455e-08,-9.33344e-10,119.252,3319.22,46.2439,3319.22,-7792.45,-120.861,46.2439,-120.861,-2308.5,10,221,243,265,271,656
9230.21,1.14279e-06,-7.93704e-09,1.33199e-07,1.019e-07,1.33199e-07,-1.45274e-06,-1.3669e-07,1.019e-07,-1.3669e-07,3.79792e-07,-4407.85,717.223,548.694,717.223,-12187.6,-736.022,548.694,-736.022,-2320.08,10,221,222,268,271,657
20458.8,2.53299e-06,1.1494e-06,-3.82283e-07,1.14328e-07,-3.82283e-07,-2.5487e-06,-6.23763e-07,1.14328e-07,-6.23763e-07,8.92288e-07,4141.51,-2058.45,615.613,-2058.45,-15771.4,-3358.73,615.613,-3358.73,2757.04,10,276,287,288,328,658
23792.3,2.9457e-06,1.15093e-06,-3.18165e-07,1.03044e-07,-3.18165e-07,-3.41482e-06,-1.65049e-07,1.03044e-07,-1.65049e-07,7.31335e-07,8.05824,-1713.21,554.851,-1713.21,-24576.8,-888.739,554.851,-888.739,-2251.29,10,56,276,288,328,659
22216.3,2.75058e-06,9.55421e-07,-5.45123e-07,1.92565e-07,-5.45123e-07,-3.11877e-06,-2.53297e-07,1.92565e-07,-2.53297e-07,7.56345e-07,-537.597,-2935.3,1036.89,-2935.3,-22475.6,-1363.92,1036.89,-1363.92,-1609.54,10,56,143,276,328,660
19628.8,2.43023e-06,1.16942e-06,-1.36752e-08,-2.84385e-09,-1.36752e-08,-2.7027e-06,-2.75524e-07,-2.84385e-09,-2.75524e-07,5.80652e-07,2449.64,-73.6378,-15.3133,-73.6378,-18400.2,-1483.59,-15.3133,-1483.59,-720.631,10,266,276,280,288,661
12849,1.59083e-06,4.64273e-07,-4.63392e-07,-4.76852e-08,-4.63392e-07,-1.74155e-06,-3.57713e-07,-4.76852e-08,-3.57713e-07,3.66355e-07,-1178.8,-2495.19,-256.766,-2495.19,-13056.3,-1926.15,-256.766,-1926.15,-1706.05,10,281,290,292,293,662
18347.7,2.27162e-06,7.06786e-07,-1.30812e-06,9.35307e-08,-1.30812e-06,-1.73545e-06,-3.04677e-07,9.35307e-08,-3.04677e-07,7.89121e-07,2838.36,-7043.72,503.625,-7043.72,-10312.1,-1640.57,503.625,-1640.57,3281.71,10,41,146,281,317,663
19692.7,2.43815e-06,9.24631e-07,-2.74854e-07,-7.4193e-08,-2.74854e-07,-2.59942e-06,-5.55843e-07,-7.4193e-08,-5.55843e-07,8.62898e-07,1699.93,-1479.99,-399.503,-1479.99,-17275.8,-2993.01,-399.503,-2993.01,1367.52,10,143,276,281,328,664
14672,1.81654e-06,6.8304e-07,-4.11309e-07,-1.31282e-07,-4.11309e-07,-1.32748e-06,-1.03073e-06,-1.31282e-07,-1.03073e-06,4.81799e-07,3021.04,-2214.74,-706.902,-2214.74,-7804.86,-5550.1,-706.902,-5550.1,1937.44,10,142,303,311,328,665
8683.23,1.07507e-06,1.30092e-07,-5.75911e-07,-1.46004e-08,-5.75911e-07,-5.66171e-07,-6.00792e-07,-1.46004e-08,-6.00792e-07,1.79929e-07,-333.967,-3101.06,-78.6148,-3101.06,-4083.08,-3235.03,-78.6148,-3235.03,-65.6094,10,237,299,300,309,666
9788,1.21185e-06,2.86877e-07,-5.56237e-07,2.15154e-08,-5.56237e-07,-1.11073e-06,4.87826e-08,2.15154e-08,4.87826e-08,5.38121e-07,390.789,-2995.12,115.853,-2995.12,-7134.78,262.678,115.853,262.678,1743.64,10,50,180,296,317,667
10814.2,1.3389e-06,3.75986e-07,-4.85911e-07,4.06381e-08,-4.85911e-07,-1.35131e-06,-3.09104e-08,4.06381e-08,-3.09104e-08,5.51414e-07,312.578,-2616.44,218.821,-2616.44,-8988.26,-166.439,218.821,-166.439,1257.19,10,284,291,296,317,668
8749.68,1.08329e-06,2.79956e-07,-5.83781e-07,-9.08352e-09,-5.83781e-07,-8.86487e-07,6.63772e-08,-9.08352e-09,6.63772e-08,4.61014e-07,919.782,-3143.44,-48.9108,-3143.44,-5361.06,357.417,-48.9108,357.417,1894.71,10,0,50,180,317,669
14343.1,1.77581e-06,3.67569e-07,-3.4981e-07,2.42103e-08,-3.4981e-07,-1.87278e-06,-4.09146e-07,2.42103e-08,-4.09146e-07,8.15803e-07,-804.975,-1883.59,130.365,-1883.59,-12868.4,-2203.1,130.365,-2203.1,1608.6,10,278,281,290,292,670
15379.6,1.90415e-06,8.0032e-07,-1.19329e-06,-2.19455e-08,-1.19329e-06,-1.05262e-06,-5.78776e-07,-2.19455e-08,-5.78776e-07,4.25864e-07,5010.32,-6425.43,-118.168,-6425.43,-4967.03,-3116.48,-118.168,-3116.48,2994.02,10,146,281,298,301,671
10757.7,1.3319e-06,3.08641e-07,-5.75795e-07,-7.86748e-08,-5.75795e-07,-1.2371e-06,-3.2873e-07,-7.86748e-08,-3.2873e-07,4.64249e-07,-212.788,-3100.44,-423.634,-3100.44,-8535.99,-1770.09,-423.634,-1770.09,625.106,10,13,180,298,317,672
12554.4,1.55435e-06,4.40933e-07,-4.46981e-07,-8.17542e-08,-4.46981e-07,-1.73727e-06,-3.28811e-07,-8.17542e-08,-3.28811e-07,3.18174e-07,-1576.05,-2406.82,-440.214,-2406.82,-13304.9,-1770.52,-440.214,-1770.52,-2237.06,10,281,292,293,299,673
10514.4,1.30178e-06,6.87337e-07,4.95887e-07,-4.02194e-08,4.95887e-07,-1.21954e-06,2.43132e-07,-4.02194e-08,2.43132e-07,1.4121e-07,2122.01,2670.16,-216.565,2670.16,-8145.81,1309.17,-216.565,1309.17,-818.67,10,31,321,336,337,674
8369.32,1.0362e-06,5.97059e-07,3.19114e-08,-9.81938e-08,3.19114e-08,-9.85915e-07,3.9429e-07,-9.81938e-08,3.9429e-07,8.20339e-10,1647.86,171.831,-528.736,171.831,-6875.85,2123.1,-528.736,2123.1,-1562.66,10,190,334,335,336,675
8111.98,1.00434e-06,4.85048e-07,4.9039e-08,-5.12507e-08,4.9039e-08,-9.87081e-07,4.01791e-07,-5.12507e-08,4.01791e-07,1.295e-07,1107.33,264.056,-275.965,264.056,-6819.53,2163.49,-275.965,2163.49,-807.164,10,190,197,334,336,676
11437.2,1.41604e-06,6.48041e-07,1.58182e-07,-1.51918e-07,1.58182e-07,-1.48507e-06,3.00542e-07,-1.51918e-07,3.00542e-07,4.08361e-07,1758.28,851.75,-818.018,851.75,-9727.71,1618.3,-818.018,1618.3,467.69,10,264,270,335,336,677
13218.8,1.63662e-06,6.81081e-07,2.58697e-07,-6.72441e-08,2.58697e-07,-1.77644e-06,2.68579e-07,-6.72441e-08,2.68579e-07,4.84954e-07,1202.23,1392.98,-362.083,1392.98,-12030.6,1446.2,-362.083,1446.2,146.161,10,39,264,335,336,678
11326.7,1.40235e-06,8.32526e-07,4.42441e-07,-2.53424e-07,4.42441e-07,-1.20198e-06,3.42394e-07,-2.53424e-07,3.42394e-07,2.49735e-07,3999.34,2382.37,-1364.59,2382.37,-6955.69,1843.66,-1364.59,1843.66,861.236,10,31,197,336,337,679
8293.68,1.02684e-06,3.22284e-07,3.26684e-07,-3.29324e-11,3.26684e-07,-1.12286e-06,2.80827e-07,-3.29324e-11,2.80827e-07,9.90029e-08,-1097.91,1759.07,-0.176911,1759.07,-8879.46,1512.15,-0.176911,1512.15,-2300.19,10,251,269,336,337,680
11447.2,1.41727e-06,4.14868e-07,2.48539e-07,-8.84407e-09,2.48539e-07,-1.31908e-06,-7.23386e-07,-8.84407e-09,-7.23386e-07,2.61409e-07,-362.057,1338.29,-47.622,1338.29,-9698.73,-3895.16,-47.622,-3895.16,-1188.37,10,235,289,307,319,681
22525.1,2.78881e-06,1.20285e-06,4.92731e-07,3.31277e-07,4.92731e-07,-2.81565e-06,-8.15484e-07,3.31277e-07,-8.15484e-07,7.21828e-07,2878.68,2653.18,1783.81,2653.18,-18759.4,-4391.08,1783.81,-4391.08,288.565,10,64,65,312,318,682
18032.2,2.23255e-06,8.51763e-07,5.5394e-07,2.44214e-07,5.5394e-07,-2.20307e-06,-5.75355e-07,2.44214e-07,-5.75355e-07,7.8143e-07,2284.96,2982.75,1315,2982.75,-14164.2,-3098.07,1315,-3098.07,1906.24,10,65,312,313,318,683
18401.1,2.27823e-06,9.52441e-07,1.29785e-06,-2.14827e-07,1.29785e-06,-1.52891e-06,-5.41124e-07,-2.14827e-07,-5.41124e-07,7.06863e-07,5655.08,6988.44,-1156.76,6988.44,-7706.03,-2913.74,-1156.76,-2913.74,4332.74,10,66,313,318,326,684
11960.6,1.48083e-06,5.22953e-07,8.10592e-08,-1.01416e-07,8.10592e-08,-1.52591e-06,-5.16162e-07,-1.01416e-07,-5.16162e-07,4.65837e-07,646.734,436.47,-546.087,436.47,-10385.6,-2779.33,-546.087,-2779.33,339.185,10,229,287,289,293,685
16969.8,2.10102e-06,7.82688e-07,1.40215e-07,2.45217e-08,1.40215e-07,-2.41067e-06,-2.69848e-08,2.45217e-08,-2.69848e-08,6.76322e-07,371.212,755.009,132.04,755.009,-16823.8,-145.301,132.04,-145.301,-201.524,10,262,266,273,277,686
17836.2,2.20829e-06,7.10159e-07,4.59857e-07,1.31768e-07,4.59857e-07,-2.06908e-06,-8.36093e-07,1.31768e-07,-8.36093e-07,8.68255e-07,1842.36,2476.16,709.523,2476.16,-13122.8,-4502.05,709.523,-4502.05,2693.65,10,289,312,313,318,687
8426.39,1.04327e-06,-7.60323e-10,6.99374e-07,3.36528e-08,6.99374e-07,-6.12505e-07,-3.37953e-07,3.36528e-08,-3.37953e-07,2.89047e-07,-1313.44,3765.86,181.205,3765.86,-4607.46,-1819.75,181.205,-1819.75,247.059,10,183,189,227,323,688
9774.36,1.21016e-06,2.67893e-07,-3.00908e-07,-1.05659e-07,-3.00908e-07,-6.96815e-07,-8.69279e-07,-1.05659e-07,-8.69279e-07,-5.62871e-08,-517.008,-1620.28,-568.929,-1620.28,-5711.61,-4680.74,-568.929,-4680.74,-2262.59,10,211,214,240,286,689
8951.04,1.10822e-06,4.82771e-07,5.32732e-07,1.20444e-08,5.32732e-07,-9.86353e-07,-1.29665e-07,1.20444e-08,-1.29665e-07,2.40481e-07,1537,2868.56,64.8546,2868.56,-6373.67,-698.194,64.8546,-698.194,232.36,10,175,176,315,329,690
17573.6,2.17578e-06,9.56619e-07,-1.07137e-06,2.6074e-07,-1.07137e-06,-1.82612e-06,2.0057e-07,2.6074e-07,2.0057e-07,6.02392e-07,4072.26,-5768.94,1403.99,-5768.94,-10911.7,1079.99,1403.99,1079.99,2164.9,10,51,52,54,284,691
16817.1,2.08211e-06,6.65682e-07,9.02495e-07,-5.66818e-08,9.02495e-07,-1.90014e-06,-2.60926e-07,-5.66818e-08,-2.60926e-07,8.52207e-07,2040.7,4859.6,-305.209,4859.6,-11775.3,-1404.99,-305.209,-1404.99,3045.07,10,267,318,325,326,692
9430.48,1.16758e-06,-1.74539e-07,4.84983e-07,-1.4087e-07,4.84983e-07,-1.11536e-06,4.82457e-08,-1.4087e-07,4.82457e-08,6.32276e-07,-3595.62,2611.45,-758.533,2611.45,-8661.58,259.786,-758.533,259.786,748.772,10,26,263,326,329,693
7616.89,9.43043e-07,0,5.27653e-07,0,5.27653e-07,-7.16267e-07,-4.66441e-07,0,-4.66441e-07,0,-2892.62,2841.21,-0.00265051,2841.21,-6749.46,-2511.6,-0.00265051,-2511.6,-2892.62,10,227,228,233,320,694
12587.6,1.55847e-06,5.20266e-07,3.33198e-07,1.7105e-08,3.33198e-07,-1.53025e-06,-6.79036e-07,1.7105e-08,-6.79036e-07,2.65818e-07,-203.875,1794.15,92.1031,1794.15,-11245.1,-3656.35,92.1031,-3656.35,-1573.98,10,289,307,312,319,695
6963.28,8.6212e-07,1.60384e-07,3.30127e-07,1.5898e-07,3.30127e-07,-8.37669e-07,-2.29136e-07,1.5898e-07,-2.29136e-07,2.65466e-07,-799.515,1777.6,856.049,1777.6,-6173.65,-1233.81,856.049,-1233.81,-233.69,10,62,189,320,322,696
12159.8,1.5055e-06,7.55347e-07,-2.06484e-07,-2.5332e-07,-2.06484e-07,-1.23934e-06,-7.52653e-07,-2.5332e-07,-7.52653e-07,6.73672e-08,2384.69,-1111.84,-1364.03,-1111.84,-8355.96,-4052.75,-1364.03,-4052.75,-1319.81,10,58,257,261,303,697
10063.6,1.24597e-06,7.65785e-07,3.1933e-07,2.29894e-07,3.1933e-07,-1.00672e-06,-4.70524e-07,2.29894e-07,-4.70524e-07,-3.10113e-08,3025.22,1719.47,1237.89,1719.47,-6519.02,-2533.59,1237.89,-2533.59,-1265.22,10,59,169,259,305,698
9310.31,1.15271e-06,8.01569e-07,2.32483e-07,1.40234e-07,2.32483e-07,-9.85969e-07,-3.17482e-07,1.40234e-07,-3.17482e-07,1.71706e-07,4264.87,1251.83,755.107,1251.83,-5360.34,-1709.52,755.107,-1709.52,873.302,10,167,169,259,305,699
9867.46,1.22168e-06,6.11867e-07,-1.66899e-07,2.84574e-08,-1.66899e-07,-9.48796e-07,-6.63459e-07,2.84574e-08,-6.63459e-07,1.84908e-07,2680.72,-898.685,153.233,-898.685,-5722.86,-3572.47,153.233,-3572.47,381.718,10,255,261,286,302,700
10524.5,1.30304e-06,7.71091e-07,1.41538e-07,1.00254e-07,1.41538e-07,-9.80465e-07,-6.52134e-07,1.00254e-07,-6.52134e-07,2.86773e-07,4464.58,762.129,539.83,762.129,-4966.88,-3511.49,539.83,-3511.49,1856.72,10,167,259,260,305,701
8153.6,1.00949e-06,1.28962e-07,1.38756e-07,-4.95305e-08,1.38756e-07,-6.20237e-07,-7.60888e-07,-4.95305e-08,-7.60888e-07,1.88872e-08,-1213.31,747.149,-266.704,747.149,-5247.48,-4097.09,-266.704,-4097.09,-1806.02,10,159,239,260,285,702
10536.3,1.3045e-06,9.71252e-07,5.31513e-07,2.28857e-07,5.31513e-07,-8.75267e-07,-2.78982e-07,2.28857e-07,-2.78982e-07,2.31055e-07,6550.55,2861.99,1232.31,2861.99,-3392.25,-1502.21,1232.31,-1502.21,2564.87,10,147,168,170,304,703
15291.4,1.89322e-06,8.78626e-07,-1.28327e-07,-4.19637e-08,-1.28327e-07,-1.66788e-06,-9.56532e-07,-4.19637e-08,-9.56532e-07,2.39048e-07,2509.05,-690.992,-225.959,-690.992,-11202.9,-5150.56,-225.959,-5150.56,-934.829,10,259,303,314,327,704
8453.51,1.04662e-06,1.25531e-07,8.19751e-07,1.23882e-07,8.19751e-07,-5.58499e-07,-6.90237e-08,1.23882e-07,-6.90237e-08,-2.29179e-08,-1165.14,4414.05,667.055,4414.05,-4848.39,-371.666,667.055,-371.666,-1964.49,10,173,174,183,323,705
9679.43,1.1984e-06,5.38876e-07,3.6223e-07,-1.1822e-07,3.6223e-07,-1.2274e-06,2.57151e-07,-1.1822e-07,2.57151e-07,1.63327e-07,780.636,1950.47,-636.568,1950.47,-8730.1,1384.66,-636.568,1384.66,-1241.55,10,269,321,336,337,706
10781.7,1.33488e-06,5.6917e-07,6.2012e-07,-1.31231e-09,6.2012e-07,-1.15319e-06,1.12472e-07,-1.31231e-09,1.12472e-07,4.77922e-07,2636.29,3339.11,-7.06686,3339.11,-6637.94,605.622,-7.06686,605.622,2144.96,10,31,37,264,321,707
9114.21,1.12842e-06,2.55373e-07,4.16107e-07,5.54588e-08,4.16107e-07,-1.1833e-06,1.85103e-09,5.54588e-08,1.85103e-09,4.21484e-07,-670.165,2240.58,298.624,2240.58,-8416.86,9.96793,298.624,9.96793,224.276,10,265,321,329,330,708
10685,1.32291e-06,4.50829e-07,6.36475e-07,2.87674e-07,6.36475e-07,-1.14638e-06,9.46473e-08,2.87674e-07,9.46473e-08,3.82926e-07,1165.01,3427.18,1549.02,3427.18,-7435.35,509.639,1549.02,509.639,799.373,10,26,27,37,321,709
8224.62,1.01829e-06,2.73646e-07,5.93347e-07,-1.74455e-08,5.93347e-07,-8.62627e-07,1.32578e-07,-1.74455e-08,1.32578e-07,2.10363e-07,-55.5624,3194.94,-93.9363,3194.94,-6173.96,713.881,-93.9363,713.881,-396.319,10,245,265,321,330,710
7785.84,9.6396e-07,3.08431e-07,4.96622e-07,-1.10938e-07,4.96622e-07,-8.55014e-07,1.80823e-07,-1.10938e-07,1.80823e-07,1.74624e-07,158.631,2674.12,-597.36,2674.12,-6106.08,973.664,-597.36,973.664,-561.871,10,245,269,321,337,711
8998.94,1.11415e-06,4.3911e-07,6.0976e-07,2.40509e-08,6.0976e-07,-8.64916e-07,2.13593e-07,2.40509e-08,2.13593e-07,3.00547e-07,1858.58,3283.32,129.505,3283.32,-5163.1,1150.12,129.505,1150.12,1112.47,10,243,265,269,271,712
5836.97,7.22672e-07,0,2.70247e-07,0,2.70247e-07,-9.34245e-07,1.66493e-07,0,1.66493e-07,0,-3772.91,1455.18,0.000484553,1455.18,-8803.47,896.501,0.000484553,896.501,-3772.91,10,246,250,251,269,713
7215.42,8.93337e-07,2.16985e-07,4.18129e-07,-1.70371e-07,4.18129e-07,-9.09716e-07,3.62253e-08,-1.70371e-07,3.62253e-08,1.31143e-07,-1099.57,2251.46,-917.383,2251.46,-7166.43,195.06,-917.383,195.06,-1561.8,10,243,245,265,269,714
6235.28,7.71986e-07,3.41792e-08,3.34769e-07,6.60624e-08,3.34769e-07,-8.12476e-07,2.89703e-07,6.60624e-08,2.89703e-07,6.05296e-08,-2714.64,1802.6,355.722,1802.6,-7273.55,1559.94,355.722,1559.94,-2572.75,10,245,250,269,337,715
5671.01,7.02124e-07,-3.71269e-10,-2.59483e-07,5.62186e-10,-2.59483e-07,-7.82261e-07,3.14208e-07,5.62186e-10,3.14208e-07,-7.88966e-10,-3165.82,-1397.22,3.02634,-1397.22,-7376,1691.89,3.02634,1691.89,-3168.07,10,203,204,205,331,716
10702.1,1.32501e-06,2.36017e-07,5.66141e-07,1.97503e-07,5.66141e-07,-1.20633e-06,-3.99104e-07,1.97503e-07,-3.99104e-07,4.27836e-07,-919.918,3048.45,1063.48,3048.45,-8686.41,-2149.02,1063.48,-2149.02,112.953,10,313,316,320,322,717
15208.5,1.88296e-06,5.70482e-07,-4.75949e-07,-2.7906e-07,-4.75949e-07,-1.36225e-06,-1.12161e-06,-2.7906e-07,-1.12161e-06,3.03116e-07,1098.41,-2562.8,-1502.63,-2562.8,-9308.6,-6039.46,-1502.63,-6039.46,-341.251,10,141,142,303,311,718
12978.8,1.6069e-06,4.63768e-07,-3.83601e-07,-1.61349e-07,-3.83601e-07,-1.581e-06,-5.96587e-07,-1.61349e-07,-5.96587e-07,4.83827e-07,-60.7889,-2065.54,-868.8,-2065.54,-11071.1,-3212.39,-868.8,-3212.39,47.2208,10,281,293,299,311,719
11017.1,1.36403e-06,5.45327e-07,-1.11786e-07,-1.95919e-10,-1.11786e-07,-1.15012e-06,-7.33116e-07,-1.95919e-10,-7.33116e-07,3.14465e-07,1763.89,-601.926,-1.05521,-601.926,-7365.44,-3947.54,-1.05521,-3947.54,520.789,10,235,289,293,327,720
9363.96,1.15935e-06,1.1126e-09,-2.62355e-07,3.02958e-08,-2.62355e-07,-9.37615e-07,-7.08597e-07,3.02958e-08,-7.08597e-07,3.36551e-07,-2416.9,-1412.68,163.133,-1412.68,-7471.59,-3815.53,163.133,-3815.53,-610.684,10,235,236,293,310,721
10373.9,1.28439e-06,4.68935e-07,-5.91806e-07,-5.17311e-08,-5.91806e-07,-9.94499e-07,-4.76652e-07,-5.17311e-08,-4.76652e-07,3.41521e-07,1781.78,-3186.65,-278.551,-3186.65,-6098.26,-2566.59,-278.551,-2566.59,1095.7,10,231,292,293,299,722
13712.6,1.69775e-06,5.4981e-07,-1.73927e-07,-5.01689e-08,-1.73927e-07,-1.49761e-06,-9.04029e-07,-5.01689e-08,-9.04029e-07,4.15598e-07,811.206,-936.53,-270.139,-936.53,-10213.4,-4867.85,-270.139,-4867.85,88.5296,10,303,310,327,328,723
9197.82,1.13878e-06,1.89365e-07,-7.27385e-07,-7.6886e-08,-7.27385e-07,-7.5293e-07,-3.53377e-07,-7.6886e-08,-3.53377e-07,2.40004e-07,-287.036,-3916.69,-414,-3916.69,-5360.95,-1902.8,-414,-1902.8,-14.3674,10,232,292,298,324,724
14668.2,1.81607e-06,8.55761e-07,-1.07329e-06,-9.56485e-08,-1.07329e-06,-7.95713e-07,-7.47245e-07,-9.56485e-08,-7.47245e-07,4.95567e-07,6851.74,-5779.27,-515.03,-5779.27,-2040.8,-4023.62,-515.03,-4023.62,4912.23,10,146,281,301,311,725
8525.58,1.05555e-06,2.58642e-08,-2.72244e-07,-1.07154e-07,-2.72244e-07,-1.16541e-06,-3.33667e-07,-1.07154e-07,-3.33667e-07,3.53125e-07,-3036.69,-1465.93,-576.983,-1465.93,-9451.28,-1796.67,-576.983,-1796.67,-1274.51,10,230,231,290,293,726
22546.6,2.79148e-06,1.16099e-06,5.39928e-07,-1.48732e-07,5.39928e-07,-3.11772e-06,-3.21246e-07,-1.48732e-07,-3.21246e-07,6.19082e-07,849.408,2907.32,-800.864,2907.32,-22189.8,-1729.8,-800.864,-1729.8,-2068.57,10,56,64,288,312,727
6996.89,8.66282e-07,2.9907e-07,2.69341e-07,-1.19165e-07,2.69341e-07,-8.94105e-07,-5.31455e-08,-1.19165e-07,-5.31455e-08,2.95813e-07,401.977,1450.3,-641.656,1450.3,-6022.81,-286.168,-641.656,-286.168,384.442,10,26,175,176,329,728
24394.5,3.02027e-06,1.98877e-06,5.36381e-08,2.24326e-07,5.36381e-08,-2.98932e-06,-2.52884e-07,2.24326e-07,-2.52884e-07,7.59521e-07,9735.28,288.818,1207.91,288.818,-17069.8,-1361.67,1207.91,-1361.67,3116.27,10,22,55,280,288,729
14261.7,1.76574e-06,8.43408e-07,-5.10815e-07,-3.26926e-07,-5.10815e-07,-1.58363e-06,-5.42448e-07,-3.26926e-07,-5.42448e-07,4.11568e-07,3214.14,-2750.55,-1760.37,-2750.55,-9854.53,-2920.88,-1760.37,-2920.88,888.852,10,144,281,311,328,730
20046.7,2.48197e-06,1.47448e-07,9.7557e-07,3.58609e-07,9.7557e-07,-2.7172e-06,-2.85317e-07,3.58609e-07,-2.85317e-07,7.69509e-07,-6476.32,5253.09,1930.98,5253.09,-21901.4,-1536.32,1930.98,-1536.32,-3126.75,10,22,23,64,318,731
14647.8,1.81354e-06,5.89782e-07,-5.62048e-08,1.65743e-08,-5.62048e-08,-2.1842e-06,-1.09073e-07,1.65743e-08,-1.09073e-07,4.6091e-07,-1401.89,-302.645,89.2466,-302.645,-16338.7,-587.315,89.2466,-587.315,-2095.81,10,266,268,273,287,732
20127.6,2.49198e-06,1.01487e-06,-5.77937e-07,-8.88097e-10,-5.77937e-07,-2.66523e-06,-2.88149e-07,-8.88097e-10,-2.88149e-07,7.76041e-07,1933.75,-3111.98,-4.78226,-3111.98,-17882.2,-1551.57,-4.78226,-1551.57,647.731,10,276,278,281,287,733
9159.92,1.13408e-06,2.87775e-07,-5.68451e-07,-7.13373e-08,-5.68451e-07,-1.02089e-06,1.48588e-07,-7.13373e-08,1.48588e-07,3.80746e-07,126.519,-3060.89,-384.124,-3060.89,-6920.15,800.09,-384.124,800.09,627.132,10,49,50,295,297,734
20717.2,2.56498e-06,1.01747e-06,-2.43868e-07,2.32648e-08,-2.43868e-07,-2.89917e-06,-4.80757e-08,2.32648e-08,-4.80757e-08,8.22949e-07,1202.95,-1313.14,125.273,-1313.14,-19886.7,-258.861,125.273,-258.861,155.505,10,266,276,277,278,735
21439.7,2.65443e-06,1.18351e-06,2.8092e-09,4.26624e-08,2.8092e-09,-2.98135e-06,-2.6877e-07,4.26624e-08,-2.6877e-07,7.20286e-07,2021.09,15.1262,229.721,15.1262,-20405.1,-1447.22,229.721,-1447.22,-473.216,10,55,276,280,288,736
7171.01,8.87839e-07,4.21062e-08,4.58774e-07,5.71194e-08,4.58774e-07,-5.48532e-07,-3.69816e-07,5.71194e-08,-3.69816e-07,4.25343e-07,-100.729,2470.32,307.564,2470.32,-3281.09,-1991.32,307.564,-1991.32,1962.85,10,61,62,163,306,737
8215.79,1.01719e-06,5.41895e-07,-2.88174e-08,9.99774e-08,-2.88174e-08,-1.16146e-06,1.31884e-07,9.99774e-08,1.31884e-07,-5.03352e-08,212.536,-155.172,538.34,-155.172,-8959.38,710.146,538.34,710.146,-2976.4,10,247,252,270,332,738
9208.78,1.14013e-06,4.14769e-07,-4.77464e-07,3.09583e-08,-4.77464e-07,-1.14362e-06,1.32158e-07,3.09583e-08,1.32158e-07,2.39031e-07,255.235,-2570.96,166.698,-2570.96,-8136.11,711.618,166.698,711.618,-691.046,10,294,295,297,332,739
13278,1.64394e-06,2.88367e-07,1.07814e-06,3.78857e-07,1.07814e-06,-6.19324e-07,-6.79144e-07,3.78857e-07,-6.79144e-07,2.36151e-07,1169.86,5805.37,2039.99,5805.37,-3717.73,-3656.93,2039.99,-3656.93,888.69,10,61,62,66,313,740
12854.4,1.5915e-06,6.83125e-07,-5.01252e-07,6.69096e-08,-5.01252e-07,-1.71507e-06,1.17268e-07,6.69096e-08,1.17268e-07,2.43609e-07,494.671,-2699.06,360.283,-2699.06,-12418.7,631.441,360.283,631.441,-1871.96,10,274,294,297,332,741
8589.22,1.06343e-06,3.18138e-07,2.86062e-07,3.5141e-09,2.86062e-07,-1.00866e-06,4.92131e-07,3.5141e-09,4.92131e-07,1.56811e-07,-442.306,1540.34,18.9223,1540.34,-7586.59,2649.94,18.9223,2649.94,-1310.99,10,251,334,336,337,742
8469.14,1.04856e-06,2.62985e-07,-1.65938e-07,1.26058e-07,-1.65938e-07,-1.08114e-06,5.04236e-07,1.26058e-07,5.04236e-07,6.60786e-08,-1621.16,-893.514,678.777,-893.514,-8858.77,2715.12,678.777,2715.12,-2681.43,10,190,331,333,334,743
7548.21,9.3454e-07,5.35008e-07,-1.34203e-07,-1.88903e-08,-1.34203e-07,-9.01597e-07,3.10548e-07,-1.88903e-08,3.10548e-07,8.64733e-08,1749.57,-722.629,-101.717,-722.629,-5986,1672.18,-101.717,1672.18,-665.617,10,190,205,206,331,744
11643,1.44151e-06,4.85792e-07,4.33046e-07,5.11999e-08,4.33046e-07,-1.56981e-06,2.21431e-07,5.11999e-08,2.21431e-07,3.46094e-07,-364.274,2331.79,275.692,2331.79,-11432.9,1192.32,275.692,1192.32,-1116.5,10,262,264,265,269,745
8683.11,1.07505e-06,3.02222e-07,2.37395e-07,-2.61151e-08,2.37395e-07,-1.1574e-06,4.03482e-07,-2.61151e-08,4.03482e-07,1.58102e-07,-1187.76,1278.28,-140.62,1278.28,-9047.25,2172.59,-140.62,2172.59,-1963.79,10,197,334,336,337,746
7485.88,9.26822e-07,0,7.62437e-08,0,7.62437e-08,-7.60507e-07,-6.67568e-07,0,-6.67568e-07,0,-3071.28,410.543,-0.000548131,410.543,-7166.33,-3594.6,-0.000548131,-3594.6,-3071.28,10,235,239,240,258,747
21669.1,2.68284e-06,1.29349e-06,-4.08016e-07,2.7198e-07,-4.08016e-07,-2.70991e-06,8.19118e-07,2.7198e-07,8.19118e-07,4.91799e-07,3230.86,-2197.03,1464.51,-2197.03,-18326,4410.64,1464.51,4410.64,-1085.96,10,34,44,272,335,748
21640.1,2.67925e-06,1.10814e-06,4.42974e-07,-2.99218e-08,4.42974e-07,-2.76268e-06,-6.52434e-07,-2.99218e-08,-6.52434e-07,9.17882e-07,2991.89,2385.25,-161.116,2385.25,-17851,-3513.12,-161.116,-3513.12,1967.41,10,64,288,312,318,749
11878.2,1.47063e-06,7.12631e-07,3.69717e-07,-1.44893e-07,3.69717e-07,-1.47399e-06,4.72925e-07,-1.44893e-07,4.72925e-07,-1.16776e-08,715.336,1990.78,-780.191,1990.78,-11058.8,2546.52,-780.191,2546.52,-3184.79,10,32,190,335,336,750
10829.9,1.34085e-06,3.9992e-07,4.99349e-07,-8.46523e-09,4.99349e-07,-1.40493e-06,6.12365e-08,-8.46523e-09,6.12365e-08,4.15424e-07,-227.611,2688.8,-45.5822,2688.8,-9946.03,329.736,-45.5822,329.736,-144.127,10,263,265,321,329,751
15944.2,1.97404e-06,5.70619e-07,6.0751e-07,-5.36304e-08,6.0751e-07,-2.14965e-06,2.20342e-07,-5.36304e-08,2.20342e-07,6.09247e-07,-843.887,3271.21,-288.781,3271.21,-15491.5,1186.47,-288.781,1186.47,-635.891,10,262,263,267,325,752
7736.63,9.57867e-07,3.64114e-07,6.52087e-08,-8.04548e-08,6.52087e-08,-1.18685e-06,1.37387e-07,-8.04548e-08,1.37387e-07,2.73376e-09,-1350.93,351.125,-433.219,351.125,-9702.28,739.777,-433.219,739.777,-3296.83,10,247,251,269,270,753
11515.2,1.4257e-06,5.97544e-07,5.33467e-07,-7.59224e-08,5.33467e-07,-1.39956e-06,4.90529e-08,-7.59224e-08,4.90529e-08,4.379e-07,1747.04,2872.52,-408.814,2872.52,-9006.61,264.132,-408.814,264.132,887.424,10,263,264,265,321,754
9121.12,1.12928e-06,3.51313e-07,6.80718e-07,-1.46669e-07,6.80718e-07,-8.57758e-07,1.78594e-07,-1.46669e-07,1.78594e-07,2.18616e-07,729.293,3665.4,-789.755,3665.4,-5781.09,961.658,-789.755,961.658,14.7714,10,29,199,245,321,755
17297.8,2.14164e-06,6.65912e-07,1.03384e-06,-1.0144e-07,1.03384e-06,-2.00938e-06,8.18682e-08,-1.0144e-07,8.18682e-08,6.30015e-07,704.406,5566.83,-546.22,5566.83,-13701,440.834,-546.22,440.834,511.121,10,263,267,325,326,756
11262.4,1.39439e-06,1.7914e-09,2.61513e-07,-2.16517e-08,2.61513e-07,-1.01378e-06,-9.789e-07,-2.16517e-08,-9.789e-07,2.15036e-07,-3208.82,1408.15,-116.59,1408.15,-8677.29,-5271,-116.59,-5271,-2060.56,10,159,166,188,285,757
17575.9,2.17606e-06,9.49654e-07,3.08244e-07,-1.08018e-07,3.08244e-07,-2.33624e-06,2.00709e-07,-1.08018e-07,2.00709e-07,7.61193e-07,2587.85,1659.78,-581.639,1659.78,-15105.5,1080.75,-581.639,1080.75,1573.06,10,262,264,272,277,758
18858.8,2.3349e-06,1.0773e-06,2.05031e-07,-1.55695e-08,2.05031e-07,-2.60397e-06,-2.40948e-07,-1.55695e-08,-2.40948e-07,5.78925e-07,1973.37,1104.02,-83.8366,1104.02,-17848.9,-1297.41,-83.8366,-1297.41,-710.182,10,266,280,288,318,759
16370.2,2.02679e-06,6.97296e-07,6.02144e-07,8.3808e-08,6.02144e-07,-2.0178e-06,2.68609e-07,8.3808e-08,2.68609e-07,8.85271e-07,1996.95,3242.32,451.273,3242.32,-12622.8,1446.36,451.273,1446.36,3009.12,10,39,40,264,277,760
8555.43,1.05924e-06,-1.08999e-07,4.30959e-07,-6.89506e-08,4.30959e-07,-1.13914e-06,1.27908e-07,-6.89506e-08,1.27908e-07,4.28582e-07,-3896.67,2320.55,-371.274,2320.55,-9443.58,688.734,-371.274,688.734,-1002,10,26,263,321,329,761
17778.1,2.2011e-06,1.16633e-06,1.10558e-06,-1.81183e-07,1.10558e-06,-1.68965e-06,2.02306e-07,-1.81183e-07,2.02306e-07,6.8448e-07,6931,5953.16,-975.602,5953.16,-8447.34,1089.34,-975.602,1089.34,4336.44,10,38,40,263,325,762
12860,1.59218e-06,6.15221e-07,-8.05557e-08,1.58495e-07,-8.05557e-08,-1.72076e-06,1.55079e-07,1.58495e-07,1.55079e-07,6.49005e-07,1469.01,-433.758,853.434,-433.758,-11109.4,835.042,853.434,835.042,1650.92,10,273,274,278,294,763
20725.4,2.566e-06,1.23612e-06,-3.95673e-08,-1.67729e-07,-3.95673e-08,-2.70946e-06,-2.32188e-07,-1.67729e-07,-2.32188e-07,9.62809e-07,4594.24,-213.058,-903.156,-213.058,-16651.2,-1250.24,-903.156,-1250.24,3122.55,10,266,276,277,280,764
7895.89,9.77586e-07,-2.95576e-08,-2.40237e-07,3.6757e-08,-2.40237e-07,-1.16337e-06,-4.23452e-08,3.6757e-08,-4.23452e-08,4.053e-07,-3339.99,-1293.59,197.923,-1293.59,-9445.16,-228.012,197.923,-228.012,-998.441,10,224,225,290,294,765
13790.6,1.7074e-06,5.17852e-07,-3.16101e-07,-2.93006e-08,-3.16101e-07,-2.03611e-06,-1.14119e-07,-2.93006e-08,-1.14119e-07,3.92298e-07,-1758.74,-1702.08,-157.772,-1702.08,-15510.9,-614.487,-157.772,-614.487,-2434.81,10,278,290,291,294,766
9613.71,1.19027e-06,-3.03961e-08,-1.16475e-07,-1.6355e-07,-1.16475e-07,-1.39092e-06,-2.91597e-07,-1.6355e-07,-2.91597e-07,4.82391e-07,-3955.48,-627.177,-880.655,-627.177,-11281.4,-1570.14,-880.655,-1570.14,-1194.31,10,222,230,273,287,767
9388.7,1.16241e-06,4.55823e-07,-1.27974e-07,-2.3452e-08,-1.27974e-07,-1.29188e-06,5.63375e-08,-2.3452e-08,5.63375e-08,4.12047e-07,742.052,-689.093,-126.28,-689.093,-8668.68,303.357,-126.28,303.357,506.335,10,225,270,273,294,768
17958.2,2.22339e-06,6.43722e-07,-5.49687e-07,9.32134e-08,-5.49687e-07,-2.51351e-06,2.00009e-07,9.32134e-08,2.00009e-07,6.75738e-07,-1355.97,-2959.87,501.92,-2959.87,-18356.5,1076.98,501.92,1076.98,-1183.58,10,274,275,278,284,769
9961.83,1.23337e-06,3.68147e-07,-3.96538e-07,4.15229e-09,-3.96538e-07,-1.27836e-06,1.41009e-07,4.15229e-09,1.41009e-07,4.71195e-07,209.368,-2135.21,22.3585,-2135.21,-8656.44,759.278,22.3585,759.278,764.237,10,284,294,295,297,770
14180.1,1.75563e-06,6.06068e-07,-9.40546e-07,-2.44419e-08,-9.40546e-07,-1.47122e-06,1.21541e-07,-2.44419e-08,1.21541e-07,5.66749e-07,2058.31,-5064.48,-131.609,-5064.48,-9127.11,654.456,-131.609,654.456,1846.6,10,52,278,284,317,771
10431.8,1.29156e-06,5.71565e-08,-6.45332e-07,-4.28702e-08,-6.45332e-07,-1.22622e-06,1.75859e-07,-4.28702e-08,1.75859e-07,4.97285e-07,-2405.22,-3474.87,-230.839,-3474.87,-9315.74,946.933,-230.839,946.933,-35.2894,10,50,51,284,297,772
16693.1,2.06676e-06,6.30675e-07,-1.17776e-06,1.4868e-07,-1.17776e-06,-1.70681e-06,2.42054e-07,1.4868e-07,2.42054e-07,5.15274e-07,1130.91,-6341.8,800.589,-6341.8,-11455.5,1303.37,800.589,1303.37,509.519,10,41,52,278,317,773
13363.8,1.65456e-06,6.6025e-07,-4.82543e-07,1.23165e-07,-4.82543e-07,-1.73006e-06,8.26974e-08,1.23165e-07,8.26974e-08,5.18549e-07,1328.93,-2598.31,663.196,-2598.31,-11542,445.294,663.196,445.294,565.925,10,274,284,294,297,774
8753.44,1.08376e-06,3.41324e-07,-6.19893e-07,-5.5814e-08,-6.19893e-07,-8.70995e-07,-1.5894e-07,-5.5814e-08,-1.5894e-07,2.85144e-07,850.381,-3337.88,-300.537,-3337.88,-5677.5,-855.83,-300.537,-855.83,547.871,10,180,182,296,324,775
16742.3,2.07285e-06,6.70113e-07,-3.48924e-07,-6.0956e-08,-3.48924e-07,-1.93043e-06,-9.70134e-07,-6.0956e-08,-9.70134e-07,5.51203e-07,744.542,-1878.83,-328.227,-1878.83,-13258.4,-5223.81,-328.227,-5223.81,104.247,10,143,144,145,328,776
9037.08,1.11888e-06,3.74454e-07,-6.27686e-07,1.09704e-07,-6.27686e-07,-9.57485e-07,8.03353e-08,1.09704e-07,8.03353e-08,2.07239e-07,498.656,-3379.85,590.714,-3379.85,-6673.33,432.575,590.714,432.575,-401.731,10,47,207,295,297,777
11926.5,1.47661e-06,4.38769e-07,3.65264e-07,-9.50279e-08,3.65264e-07,-1.6642e-06,7.6396e-08,-9.50279e-08,7.6396e-08,4.56943e-07,-740.911,1966.81,-511.69,1966.81,-12064.6,411.364,-511.69,411.364,-643.048,10,262,265,267,271,778
11548.1,1.42977e-06,5.61633e-07,5.41938e-07,-9.40412e-08,5.41938e-07,-1.41035e-06,7.63155e-08,-9.40412e-08,7.63155e-08,4.46214e-07,1398.65,2918.13,-506.376,2918.13,-9219.74,410.931,-506.376,410.931,777.167,10,262,263,265,267,779
8329.08,1.03122e-06,4.10974e-07,-3.59635e-07,2.56234e-08,-3.59635e-07,-1.02962e-06,2.25219e-07,2.56234e-08,2.25219e-07,2.32928e-07,655.219,-1936.5,137.972,-1936.5,-7101.84,1212.72,137.972,1212.72,-303.491,10,248,294,295,332,780
8802.61,1.08985e-06,2.54076e-08,-5.55342e-07,1.03781e-07,-5.55342e-07,-1.08939e-06,1.02488e-07,1.03781e-07,1.02488e-07,3.34814e-07,-2807.92,-2990.31,558.824,-2990.31,-8810.69,551.861,558.824,551.861,-1141.88,10,50,284,295,296,781
7158.91,8.8634e-07,4.33123e-09,-2.27514e-07,-3.97521e-08,-2.27514e-07,-1.063e-06,2.49431e-07,-3.97521e-08,2.49431e-07,2.23343e-07,-3350.12,-1225.08,-214.05,-1225.08,-9097.3,1343.09,-214.05,1343.09,-2170.82,10,247,248,294,332,782
26270.3,3.2525e-06,4.86377e-07,-1.38136e-06,-1.21872e-07,-1.38136e-06,-3.38812e-06,1.30447e-07,-1.21872e-07,1.30447e-07,1.14209e-06,-4487.42,-7438.11,-656.227,-7438.11,-25350.1,702.432,-656.227,702.432,-956.659,10,42,43,54,275,783
13656.5,1.69081e-06,5.30892e-07,-2.6408e-07,-1.84927e-08,-2.6408e-07,-2.02363e-06,-1.28613e-07,-1.84927e-08,-1.28613e-07,3.84241e-07,-1618.01,-1421.97,-99.576,-1421.97,-15373.2,-692.53,-99.576,-692.53,-2407.68,10,273,278,290,294,784
16006.1,1.98172e-06,1.26943e-06,1.38043e-06,-3.83308e-07,1.38043e-06,1.10124e-07,-7.40867e-07,-3.83308e-07,-7.40867e-07,5.34833e-07,14566.5,7433.09,-2063.96,7433.09,8324.12,-3989.27,-2063.96,-3989.27,10611,10,61,62,147,163,785
10506.5,1.3008e-06,4.7574e-07,-2.47486e-07,2.26629e-09,-2.47486e-07,-1.3639e-06,-3.09886e-07,2.26629e-09,-3.09886e-07,4.48733e-07,787.046,-1332.62,12.2037,-1332.62,-9118.72,-1668.61,12.2037,-1668.61,641.627,10,230,273,287,290,786
9086.08,1.12494e-06,2.9395e-07,-5.71553e-07,1.79197e-07,-5.71553e-07,-9.93636e-07,-3.41984e-07,1.79197e-07,-3.41984e-07,7.05653e-08,-957.878,-3077.6,964.907,-3077.6,-7891.04,-1841.45,964.907,-1841.45,-2160.72,10,226,231,290,292,787
7976.33,9.87545e-07,3.48802e-07,1.89728e-07,7.7801e-08,1.89728e-07,-7.57236e-07,-5.72289e-07,7.7801e-08,-5.72289e-07,2.05805e-07,1059.85,1021.61,418.927,1021.61,-4895.75,-3081.55,418.927,-3081.55,289.873,10,160,166,167,260,788
9151.11,1.13299e-06,3.2693e-07,-2.28491e-08,1.02361e-08,-2.28491e-08,-1.00696e-06,-6.64133e-07,1.02361e-08,-6.64133e-07,1.38222e-07,-427.695,-123.033,55.1182,-123.033,-7610.21,-3576.1,55.1182,-3576.1,-1443.81,10,258,260,261,286,789
9479.89,1.1737e-06,1.38708e-07,-2.60822e-08,-2.20823e-08,-2.60822e-08,-9.30956e-07,-7.60771e-07,-2.20823e-08,-7.60771e-07,3.12097e-07,-1192.19,-140.444,-118.905,-140.444,-6951.94,-4096.45,-118.905,-4096.45,-258.552,10,159,160,166,260,790
10135.8,1.25491e-06,5.54815e-07,-1.14376e-07,-1.3443e-09,-1.14376e-07,-9.55743e-07,-7.13555e-07,-1.3443e-09,-7.13555e-07,3.14516e-07,2638.48,-615.872,-7.23778,-615.872,-5495.3,-3842.22,-7.23778,-3842.22,1344.57,10,161,255,261,286,791
7700.28,9.53367e-07,2.44419e-07,-1.61121e-07,-8.35878e-09,-1.61121e-07,-8.39151e-07,-5.43474e-07,-8.35878e-09,-5.43474e-07,1.50146e-07,-479.347,-867.572,-45.0077,-867.572,-6313.97,-2926.4,-45.0077,-2926.4,-986.965,10,211,212,255,286,792
8960.79,1.10943e-06,4.68347e-07,-2.74871e-07,-1.30776e-07,-2.74871e-07,-8.13955e-07,-6.07157e-07,-1.30776e-07,-6.07157e-07,2.17419e-07,2004.17,-1480.08,-704.174,-1480.08,-4900.54,-3269.31,-704.174,-3269.31,653.023,10,211,254,255,302,793
15599.7,1.9314e-06,1.24927e-06,3.685e-07,1.02701e-07,3.685e-07,-1.54033e-06,-8.09571e-07,1.02701e-07,-8.09571e-07,2.43735e-07,6535.71,1984.23,553.004,1984.23,-8485.21,-4359.23,553.004,-4359.23,1121.28,10,282,305,312,314,794
8456.72,1.04702e-06,4.67161e-07,-2.79253e-07,-1.28416e-07,-2.79253e-07,-7.69963e-07,-5.27562e-07,-1.28416e-07,-5.27562e-07,2.96183e-07,2488.74,-1503.67,-691.469,-1503.67,-4172.7,-2840.72,-691.469,-2840.72,1568.09,10,254,255,279,302,795
13009.5,1.6107e-06,8.6945e-07,-5.75112e-08,-4.36508e-08,-5.75112e-08,-1.40513e-06,-7.45606e-07,-4.36508e-08,-7.45606e-07,2.55223e-07,3549.03,-309.672,-235.041,-309.672,-8698.72,-4014.8,-235.041,-4014.8,241.655,10,58,259,261,303,796
19306.8,2.39036e-06,9.32361e-07,-3.40065e-07,2.75788e-07,-3.40065e-07,-2.47375e-06,-5.94009e-07,2.75788e-07,-5.94009e-07,8.17154e-07,2095.58,-1831.13,1485.01,-1831.13,-16245,-3198.52,1485.01,-3198.52,1475.23,10,287,288,289,328,797
13546.7,1.6772e-06,5.81543e-07,-2.71305e-07,-7.8841e-08,-2.71305e-07,-1.80088e-06,-4.77733e-07,-7.8841e-08,-4.77733e-07,4.61861e-07,72.3233,-1460.88,-424.528,-1460.88,-12756.1,-2572.41,-424.528,-2572.41,-572.12,10,287,289,293,328,798
8626.16,1.068e-06,3.44711e-07,-4.81774e-07,-9.10082e-08,-4.81774e-07,-7.66205e-07,-4.97161e-07,-9.10082e-08,-4.97161e-07,2.11312e-07,1007.31,-2594.17,-490.042,-2594.17,-4974.55,-2677.02,-490.042,-2677.02,289.01,10,299,301,309,310,799
8488.37,1.05094e-06,3.33909e-07,-3.92965e-07,-2.57624e-08,-3.92965e-07,-6.96522e-07,-5.96901e-07,-2.57624e-08,-5.96901e-07,2.11893e-07,1189.29,-2115.97,-138.718,-2115.97,-4359.19,-3214.08,-138.718,-3214.08,532.282,10,210,241,302,309,800
10403.2,1.28801e-06,4.88552e-07,-1.39865e-07,2.00893e-08,-1.39865e-07,-1.05023e-06,-7.65796e-07,2.00893e-08,-7.65796e-07,9.00772e-08,726.091,-753.121,108.174,-753.121,-7559.69,-4123.52,108.174,-4123.52,-1419.54,10,258,302,303,327,801
10731.3,1.32864e-06,8.51747e-07,9.70354e-08,-8.02876e-08,9.70354e-08,-9.87143e-07,-6.60974e-07,-8.02876e-08,-6.60974e-07,2.10708e-07,4890.46,522.499,-432.317,522.499,-5011.26,-3559.09,-432.317,-3559.09,1438.71,10,258,259,261,303,802
11517.2,1.42594e-06,5.17318e-07,4.10528e-07,4.04492e-08,4.10528e-07,-1.56781e-06,2.02554e-07,4.04492e-08,2.02554e-07,2.99694e-07,-246.515,2210.54,217.804,2210.54,-11474.1,1090.67,217.804,1090.67,-1418.34,10,264,265,269,321,803
14885.9,1.84301e-06,6.93584e-07,5.80089e-07,-2.95128e-09,5.80089e-07,-1.95652e-06,2.37447e-07,-2.95128e-09,2.37447e-07,4.62437e-07,501.892,3123.56,-15.8932,3123.56,-13767.9,1278.57,-15.8932,1278.57,-742.748,10,37,40,263,264,804
12555.2,1.55446e-06,7.15003e-07,5.50031e-07,4.84515e-08,5.50031e-07,-1.49568e-06,2.92087e-07,4.84515e-08,2.92087e-07,3.84784e-07,2251.19,2961.7,260.892,2961.7,-9652.52,1572.78,260.892,1572.78,473.086,10,31,264,321,336,805
8210.13,1.01649e-06,4.29586e-07,-2.44372e-08,1.30881e-08,-2.44372e-08,-1.11491e-06,2.62503e-07,1.30881e-08,2.62503e-07,2.28915e-07,469.961,-131.585,70.4742,-131.585,-7846.55,1413.48,70.4742,1413.48,-610.574,10,247,270,294,332,806
8848.08,1.09548e-06,3.31133e-07,-4.47433e-07,5.07288e-08,-4.47433e-07,-1.16001e-06,1.42905e-07,5.07288e-08,1.42905e-07,1.88001e-07,-805.151,-2409.26,273.155,-2409.26,-8834.41,769.491,273.155,769.491,-1575.87,10,207,295,297,331,807
6961.56,8.61906e-07,3.75298e-08,-4.89922e-07,1.68607e-07,-4.89922e-07,-7.74971e-07,1.52426e-07,1.68607e-07,1.52426e-07,1.80196e-07,-2048.33,-2638.04,907.887,-2638.04,-6423.35,820.756,907.887,820.756,-1280.13,10,248,249,295,331,808
9898.83,1.22557e-06,3.65368e-07,-8.16563e-07,9.48698e-08,-8.16563e-07,-7.86062e-07,1.65391e-07,9.48698e-08,1.65391e-07,3.14834e-07,1539.84,-4396.88,510.836,-4396.88,-4660.17,890.567,510.836,890.567,1267.73,10,45,46,207,297,809
11670.7,1.44495e-06,1.12991e-06,-8.13534e-07,1.53243e-07,-8.13534e-07,-3.28629e-07,-5.88411e-07,1.53243e-07,-5.88411e-07,3.13672e-07,10586.8,-4380.56,825.153,-4380.56,2733.15,-3168.36,825.153,-3168.36,6191.69,10,11,12,140,209,810
26972.1,3.3394e-06,1.18924e-06,9.56578e-07,-3.28129e-07,9.56578e-07,-3.51831e-06,3.52514e-08,-3.28129e-07,3.52514e-08,1.15892e-06,1677.89,5150.83,-1766.85,5150.83,-23670.5,189.832,-1766.85,189.832,1514.62,10,22,36,40,277,811
6692.28,8.28567e-07,0,-5.50924e-07,0,-5.50924e-07,-7.62937e-07,1.31721e-07,0,1.31721e-07,0,-3081.09,-2966.52,-0.000781504,-2966.52,-7189.23,709.266,-0.000781504,709.266,-3081.1,10,224,248,249,295,812
8008.83,9.91568e-07,-2.5167e-08,-4.56803e-07,-1.39196e-08,-4.56803e-07,-1.07972e-06,7.90648e-08,-1.39196e-08,7.90648e-08,3.03604e-07,-3371.46,-2459.71,-74.9519,-2459.71,-9049.83,425.735,-74.9519,425.735,-1601.15,10,223,224,291,295,813
15386.9,1.90505e-06,6.46801e-07,-6.16939e-07,8.42318e-08,-6.16939e-07,-1.95e-06,2.45257e-07,8.42318e-08,2.45257e-07,6.76778e-07,952.972,-3321.99,453.557,-3321.99,-13029.8,1320.62,453.557,1320.62,1114.39,10,274,278,284,294,814
21715,2.68851e-06,1.17711e-06,-2.95616e-07,6.24781e-08,-2.95616e-07,-2.97927e-06,1.44819e-07,6.24781e-08,1.44819e-07,8.22248e-07,2380.93,-1591.78,336.421,-1591.78,-19999.6,779.794,336.421,779.794,470.116,10,35,274,275,277,815
17720.9,2.19402e-06,9.53547e-07,-1.04467e-06,2.55233e-07,-1.04467e-06,-1.83608e-06,3.79807e-08,2.55233e-07,3.79807e-08,7.9185e-07,4768.2,-5625.14,1374.33,-5625.14,-10252.9,204.51,1374.33,204.51,3897.53,10,52,54,278,284,816
8001.3,9.90637e-07,3.02218e-07,5.25877e-07,-9.37269e-08,5.25877e-07,-8.52566e-07,2.02889e-07,-9.37269e-08,2.02889e-07,2.02773e-07,223.658,2831.64,-504.683,2831.64,-5994.42,1092.48,-504.683,1092.48,-311.819,10,199,245,321,337,817
9223.09,1.14191e-06,2.50775e-07,-7.26773e-07,8.5687e-08,-7.26773e-07,-9.12112e-07,-1.03224e-07,8.5687e-08,-1.03224e-07,1.99488e-07,-514.841,-3913.39,461.392,-3913.39,-6776.55,-555.821,461.392,-555.821,-791.002,10,223,291,296,324,818
21048.5,2.606e-06,8.08438e-07,-8.71307e-07,1.75411e-08,-8.71307e-07,-2.59755e-06,3.10976e-07,1.75411e-08,3.10976e-07,1.10823e-06,1603.34,-4691.67,94.4556,-4691.67,-16736.6,1674.5,94.4556,1674.5,3217.6,10,42,54,275,278,819
16081.2,1.991e-06,1.01315e-06,-1.73776e-07,-3.22047e-08,-1.73776e-07,-2.18846e-06,-9.40888e-08,-3.22047e-08,-9.40888e-08,4.66474e-07,2592.84,-935.72,-173.41,-935.72,-14646.6,-506.63,-173.41,-506.63,-350.826,10,266,273,278,287,820
20508.2,2.5391e-06,1.13163e-06,-4.00929e-07,-4.7993e-08,-4.00929e-07,-2.793e-06,1.53513e-07,-4.7993e-08,1.53513e-07,7.16569e-07,2277.77,-2158.85,-258.424,-2158.85,-18854.8,826.61,-258.424,826.61,42.844,10,274,275,277,278,821
27305.5,3.38067e-06,1.7809e-06,-2.44034e-07,-1.04352e-07,-2.44034e-07,-3.59287e-06,-1.08489e-07,-1.04352e-07,-1.08489e-07,1.04604e-06,6496.19,-1314.02,-561.897,-1314.02,-22439.6,-584.156,-561.897,-584.156,2539.24,10,43,275,276,280,822
5963.31,7.38315e-07,2.25583e-07,4.57237e-07,8.21131e-09,4.57237e-07,-5.25928e-07,-4.33402e-08,8.21131e-09,-4.33402e-08,2.62e-07,1059.82,2462.04,44.2149,2462.04,-2986.77,-233.371,44.2149,-233.371,1255.91,10,27,29,321,330,823
48368.6,5.98853e-06,2.28276e-06,-1.01916e-06,6.39478e-07,-1.01916e-06,-2.396e-06,-4.04172e-06,6.39478e-07,-4.04172e-06,3.24837e-06,24952.5,-5487.73,3443.37,-5487.73,-240.845,-21762.9,3443.37,-21762.9,30152.2,10,9,10,142,257,824
25733.4,3.18603e-06,1.27238e-06,7.1404e-07,3.23793e-07,7.1404e-07,-3.42386e-06,-4.9907e-07,3.23793e-07,-4.9907e-07,8.49623e-07,1593.75,3844.83,1743.5,3844.83,-23693.8,-2687.3,1743.5,-2687.3,-682.668,10,22,277,280,325,825
16603,2.0556e-06,8.18452e-07,4.06622e-07,-2.10448e-07,4.06622e-07,-2.22746e-06,2.11676e-07,-2.10448e-07,2.11676e-07,6.31864e-07,1268.56,2189.51,-1133.19,2189.51,-15132.5,1139.8,-1133.19,1139.8,263.85,10,262,263,277,325,826
10335.1,1.27959e-06,7.54385e-07,1.43515e-07,1.4117e-07,1.43515e-07,-9.61243e-07,-6.5053e-07,1.4117e-07,-6.5053e-07,1.88696e-07,3988.72,772.776,760.145,772.776,-5249.29,-3502.85,760.145,-3502.85,942.701,10,258,259,260,305,827
8314.52,1.02942e-06,1.53174e-08,3.30084e-07,1.09254e-07,3.30084e-07,-7.38067e-07,-6.39544e-07,1.09254e-07,-6.39544e-07,2.45998e-07,-1842.87,1777.38,588.289,1777.38,-5899.56,-3443.7,588.289,-3443.7,-600.741,10,234,235,307,319,828
10725.9,1.32797e-06,5.76453e-07,-3.89394e-07,-2.83071e-07,-3.89394e-07,-9.37357e-07,-7.08541e-07,-2.83071e-07,-7.08541e-07,3.82406e-08,1800.9,-2096.74,-1524.23,-2096.74,-6350.4,-3815.22,-1524.23,-3815.22,-1097.16,10,141,142,257,303,829
12905,1.59776e-06,6.17707e-07,2.34954e-07,5.90828e-08,2.34954e-07,-1.52018e-06,-7.30485e-07,5.90828e-08,-7.30485e-07,2.82967e-07,824.245,1265.14,318.138,1265.14,-10687.5,-3933.38,318.138,-3933.38,-978.204,10,289,307,312,327,830
14068.2,1.74178e-06,5.08618e-07,-7.99255e-07,1.22108e-07,-7.99255e-07,-1.47299e-06,-3.58544e-07,1.22108e-07,-3.58544e-07,7.56427e-07,1898.92,-4303.69,657.506,-4303.69,-8771.25,-1930.62,657.506,-1930.62,3233.28,10,278,281,292,317,831
10842,1.34234e-06,5.35176e-07,6.61127e-08,-2.08383e-07,6.61127e-08,-1.50799e-06,-4.07243e-07,-2.08383e-07,-4.07243e-07,4.49898e-08,-865.27,355.988,-1122.06,355.988,-11867,-2192.84,-1122.06,-2192.84,-3504.74,10,229,235,289,293,832
37150.6,4.59961e-06,3.23322e-06,-2.39182e-06,1.30147e-06,-2.39182e-06,-1.95318e-06,-1.28706e-06,1.30147e-06,-1.28706e-06,1.10322e-06,27034.2,-12878.9,7007.89,-12878.9,-892.579,-6930.24,7007.89,-6930.24,15565,10,10,11,141,256,833
8027.56,9.93888e-07,5.1474e-08,6.00671e-07,-1.41627e-07,6.00671e-07,-8.58938e-07,-1.50187e-07,-1.41627e-07,-1.50187e-07,2.21313e-07,-2089.99,3234.38,-762.61,3234.38,-6992.22,-808.7,-762.61,-808.7,-1175.47,10,220,221,265,315,834
9801.35,1.2135e-06,3.31754e-07,4.61926e-07,1.07992e-08,4.61926e-07,-1.31139e-06,1.21779e-08,1.07992e-08,1.21779e-08,3.14818e-07,-898.491,2487.3,58.1491,2487.3,-9746.21,65.5754,58.1491,65.5754,-989.687,10,265,267,315,329,835
8858.22,1.09673e-06,3.16755e-07,6.82593e-07,-7.11244e-08,6.82593e-07,-8.56569e-07,1.84347e-07,-7.11244e-08,1.84347e-07,1.28714e-07,45.3821,3675.5,-382.977,3675.5,-6272.52,992.639,-382.977,992.639,-967.145,10,29,245,321,330,836
10482.5,1.29783e-06,4.41535e-07,5.63291e-07,-1.61942e-08,5.63291e-07,-1.30833e-06,-4.67787e-08,-1.61942e-08,-4.67787e-08,2.974e-07,78.0101,3033.11,-87.2005,3033.11,-9344.34,-251.883,-87.2005,-251.883,-698.104,10,221,265,267,271,837
6631.27,8.21013e-07,0,-1.95695e-07,0,-1.95695e-07,-1.17381e-06,8.92938e-08,0,8.92938e-08,0,-4740.39,-1053.74,-0.000188185,-1053.74,-11060.9,480.813,-0.000188185,480.813,-4740.39,10,224,225,248,294,838
15135.7,1.87394e-06,7.23611e-07,-1.19088e-06,8.61901e-08,-1.19088e-06,-1.02595e-06,-4.82905e-07,8.61901e-08,-4.82905e-07,6.4192e-07,5267.72,-6412.45,464.101,-6412.45,-4153,-2600.25,464.101,-2600.25,4827.84,10,146,281,298,317,839
10995.9,1.36139e-06,2.68936e-07,-5.7994e-07,8.49964e-08,-5.7994e-07,-1.28823e-06,-3.67377e-07,8.49964e-08,-3.67377e-07,4.47424e-07,-861.376,-3122.76,457.674,-3122.76,-9246.13,-1978.18,457.674,-1978.18,99.7121,10,292,298,317,324,840
28616.1,3.54293e-06,1.34129e-06,-2.62915e-07,-2.1922e-07,-2.62915e-07,-4.02034e-06,-5.12799e-07,-2.1922e-07,-5.12799e-07,1.01465e-06,500.617,-1415.71,-1180.42,-1415.71,-28369.8,-2761.23,-1180.42,-2761.23,-1258.22,10,36,275,277,280,841
32277.4,3.99624e-06,1.972e-06,-4.34546e-07,2.30067e-08,-4.34546e-07,-4.31759e-06,-4.67787e-07,2.30067e-08,-4.67787e-07,1.0719e-06,5474.66,-2339.86,123.882,-2339.86,-28392.5,-2518.85,123.882,-2518.85,627.93,10,36,43,275,280,842
10860,1.34458e-06,1.00801e-06,2.78295e-07,3.41466e-07,2.78295e-07,-1.02077e-06,-3.00681e-07,3.41466e-07,-3.00681e-07,3.50605e-07,6792.1,1498.51,1838.66,1498.51,-4132.07,-1619.05,1838.66,-1619.05,3252.24,10,162,167,169,259,843
8662.06,1.07244e-06,1.90454e-07,5.11308e-07,9.18083e-08,5.11308e-07,-8.24943e-07,-4.78218e-07,9.18083e-08,-4.78218e-07,2.47435e-07,-537.59,2753.2,494.35,2753.2,-6005.12,-2575.02,494.35,-2575.02,-230.767,10,228,316,319,320,844
8667.52,1.07312e-06,6.49358e-07,1.67024e-07,1.30867e-07,1.67024e-07,-9.96363e-07,-3.19235e-07,1.30867e-07,-3.19235e-07,1.71421e-07,2787.45,899.359,704.671,899.359,-6074.14,-1718.96,704.671,-1718.96,213.94,10,167,169,170,305,845
9240.97,1.14412e-06,2.86904e-07,4.78756e-07,6.60744e-08,4.78756e-07,-7.99115e-07,-6.30602e-07,6.60744e-08,-6.30602e-07,1.52548e-07,92.3696,2577.92,355.783,2577.92,-5755.44,-3395.55,355.783,-3395.55,-631.082,10,233,306,307,308,846
7632.01,9.44915e-07,0,2.92202e-07,0,2.92202e-07,-7.03e-07,-6.47711e-07,0,-6.47711e-07,0,-2839.04,1573.39,-0.00203821,1573.39,-6624.44,-3487.68,-0.00203821,-3487.68,-2839.04,10,234,238,239,307,847
15773.3,1.95289e-06,1.41472e-06,6.04993e-07,-1.30425e-07,6.04993e-07,-1.01346e-06,-1.00025e-06,-1.30425e-07,-1.00025e-06,2.9227e-07,10418.5,3257.65,-702.285,3257.65,-2656.28,-5385.94,-702.285,-5385.94,4374.54,10,59,60,282,305,848
7666.47,9.49181e-07,1.08946e-07,-6.33876e-07,-4.57629e-08,-6.33876e-07,-6.47752e-07,-3.40065e-07,-4.57629e-08,-3.40065e-07,-7.17392e-08,-1879.04,-3413.18,-246.413,-3413.18,-5953.58,-1831.12,-246.413,-1831.12,-2851.96,10,216,217,219,300,849
7513,9.3018e-07,0,-5.33249e-07,0,-5.33249e-07,-5.02693e-07,-5.2947e-07,0,-5.2947e-07,0,-2030.11,-2871.34,0.00304058,-2871.34,-4736.93,-2850.99,0.00304058,-2850.99,-2030.11,10,217,232,237,300,850
8427.07,1.04335e-06,2.36772e-07,-5.61584e-07,7.03528e-09,-5.61584e-07,-7.84972e-07,-4.12096e-07,7.03528e-09,-4.12096e-07,1.84802e-07,-192.646,-3023.91,37.8842,-3023.91,-5694.35,-2218.98,37.8842,-2218.98,-472.484,10,219,232,298,300,851
15248,1.88785e-06,1.06925e-06,1.80047e-07,1.18961e-07,1.80047e-07,-1.6415e-06,-8.31128e-07,1.18961e-07,-8.31128e-07,2.57752e-07,4487.43,969.486,640.562,969.486,-10108.9,-4475.31,640.562,-4475.31,117.799,10,305,312,314,327,852
21075,2.60928e-06,1.13293e-06,-9.47987e-07,-4.18835e-07,-9.47987e-07,-2.49562e-06,-3.69386e-07,-4.18835e-07,-3.69386e-07,6.64892e-07,3282.3,-5104.57,-2255.27,-5104.57,-16256.1,-1989,-2255.27,-1989,762.094,10,41,42,143,281,853
7771.2,9.62148e-07,1.22228e-07,-4.97619e-07,-9.08342e-08,-4.97619e-07,-5.50292e-07,-5.46982e-07,-9.08342e-08,-5.46982e-07,6.61176e-08,-803.566,-2679.49,-489.105,-2679.49,-4424.84,-2945.29,-489.105,-2945.29,-1105.7,10,216,237,300,309,854
7561.6,9.36198e-07,4.05511e-07,-4.14573e-07,-1.38879e-07,-4.14573e-07,-6.80949e-07,-2.91359e-07,-1.38879e-07,-2.91359e-07,3.70816e-07,2568.69,-2232.31,-747.807,-2232.31,-3281.48,-1568.85,-747.807,-1568.85,2381.88,10,140,209,279,309,855
7536.5,9.3309e-07,0,-4.30693e-07,0,-4.30693e-07,-5.84177e-07,-5.94762e-07,0,-5.94762e-07,0,-2359.18,-2319.12,0.00275865,-2319.12,-5504.76,-3202.57,0.00275865,-3202.57,-2359.18,10,236,237,241,309,856
7138.73,8.83843e-07,1.30021e-07,-3.22436e-07,-9.25523e-08,-3.22436e-07,-5.60858e-07,-4.97239e-07,-9.25523e-08,-4.97239e-07,3.5056e-07,375.909,-1736.19,-498.357,-1736.19,-3344.21,-2677.44,-498.357,-2677.44,1563.43,10,12,140,209,301,857
13803.5,1.70901e-06,6.93907e-07,-4.5505e-07,-1.33426e-07,-4.5505e-07,-1.29542e-06,-9.04847e-07,-1.33426e-07,-9.04847e-07,3.8674e-07,2869.04,-2450.27,-718.446,-2450.27,-7842.73,-4872.25,-718.446,-4872.25,1215.06,10,303,310,311,328,858
18215.2,2.25521e-06,8.46741e-07,1.04403e-06,-1.01338e-07,1.04403e-06,-2.0715e-06,-8.42812e-08,-1.01338e-07,-8.42812e-08,7.04516e-07,2458.37,5621.73,-545.666,5621.73,-13255.2,-453.822,-545.666,-453.822,1692.55,10,24,318,325,326,859
7590.07,9.39723e-07,2.75136e-07,-5.46109e-07,8.17158e-08,-5.46109e-07,-7.61959e-07,1.76301e-07,8.17158e-08,1.76301e-07,1.7164e-07,208.642,-2940.59,440.008,-2940.59,-5375.72,949.315,440.008,949.315,-348.647,10,207,249,295,331,860
10256.1,1.2698e-06,1.721e-07,-4.33778e-07,1.28033e-08,-4.33778e-07,-1.40572e-06,-2.17995e-07,1.28033e-08,-2.17995e-07,4.09441e-07,-2401.75,-2335.73,68.9412,-2335.73,-10897.7,-1173.82,68.9412,-1173.82,-1123.76,10,291,292,317,324,861
19745.3,2.44466e-06,9.48352e-07,1.12582e-06,-2.64594e-07,1.12582e-06,-2.08958e-06,-2.44665e-07,-2.64594e-07,-2.44665e-07,9.56801e-07,4361.65,6062.09,-1424.73,6062.09,-11996.5,-1317.43,-1424.73,-1317.43,4407.15,10,24,66,318,326,862
21614.6,2.67609e-06,1.22215e-06,7.84135e-07,8.43e-08,7.84135e-07,-2.73081e-06,-2.0318e-07,8.43e-08,-2.0318e-07,7.96203e-07,3703.54,4222.28,453.924,4222.28,-17581.6,-1094.04,453.924,-1094.04,1409.98,10,23,24,318,325,863
16119.7,1.99577e-06,8.53571e-07,5.41798e-07,-1.53556e-07,5.41798e-07,-1.99452e-06,3.33887e-07,-1.53556e-07,3.33887e-07,6.9144e-07,2780.81,2917.38,-826.841,2917.38,-12555,1797.86,-826.841,1797.86,1907.8,10,40,263,277,325,864
24952,3.08929e-06,1.45596e-06,5.50513e-07,-2.31044e-07,5.50513e-07,-3.27829e-06,7.1821e-09,-2.31044e-07,7.1821e-09,9.84616e-07,4456.68,2964.29,-1244.09,2964.29,-21035.5,38.6913,-1244.09,38.6913,1918.65,10,22,280,318,325,865
7049.71,8.72821e-07,2.36092e-07,5.07835e-07,1.80519e-08,5.07835e-07,-6.17302e-07,2.54822e-08,1.80519e-08,2.54822e-08,4.34904e-07,1488.1,2734.49,97.202,2734.49,-3107.1,137.213,97.202,137.213,2558.63,10,174,175,315,322,866
21047.8,2.60591e-06,6.93159e-07,8.66084e-07,-1.05755e-07,8.66084e-07,-2.63746e-06,3.12153e-07,-1.05755e-07,3.12153e-07,1.12148e-06,409.399,4663.54,-569.457,4663.54,-17524.7,1680.85,-569.457,1680.85,2715.74,10,22,40,277,325,867
10862.2,1.34484e-06,6.14317e-07,6.23303e-07,-6.91991e-08,6.23303e-07,-1.15475e-06,1.23846e-07,-6.91991e-08,1.23846e-07,4.3423e-07,2878.94,3356.25,-372.611,3356.25,-6646.83,666.865,-372.611,666.865,1909.23,10,37,263,264,321,868
6842.32,8.47144e-07,3.05808e-07,3.79922e-07,-3.38077e-08,3.79922e-07,-8.09308e-07,2.46573e-07,-3.38077e-08,2.46573e-07,-2.33621e-10,-387.655,2045.73,-182.041,2045.73,-6392.13,1327.7,-182.041,1327.7,-2035.57,10,194,199,250,337,869
5838.44,7.22853e-07,-6.39461e-08,2.38247e-07,-3.46282e-08,2.38247e-07,-7.70711e-07,3.44448e-07,-3.46282e-08,3.44448e-07,1.03449e-07,-3297.29,1282.87,-186.459,1282.87,-7102.95,1854.72,-186.459,1854.72,-2395.93,10,193,194,197,337,870
7735.1,9.57679e-07,4.99763e-07,2.41012e-08,2.59618e-08,2.41012e-08,-9.54915e-07,3.33666e-07,2.59618e-08,3.33666e-07,1.44922e-07,1438.17,129.776,139.794,129.776,-6394.72,1796.66,139.794,1796.66,-472.513,10,190,191,197,334,871
6041.12,7.47948e-07,2.45151e-07,1.54277e-07,-9.1657e-08,1.54277e-07,-7.67496e-07,3.19709e-07,-9.1657e-08,3.19709e-07,3.27152e-08,-657.314,830.722,-493.537,830.722,-6110.03,1721.51,-493.537,1721.51,-1801.2,10,193,251,334,337,872
14934.4,1.84902e-06,6.012e-07,7.36145e-07,-9.22323e-08,7.36145e-07,-1.84874e-06,2.58908e-07,-9.22323e-08,2.58908e-07,5.3314e-07,352.104,3963.87,-496.636,3963.87,-12839.9,1394.12,-496.636,1394.12,-14.369,10,31,37,39,264,873
5836.97,7.22672e-07,0,2.70247e-07,0,2.70247e-07,-9.34245e-07,1.66493e-07,0,1.66493e-07,0,-3772.91,1455.18,0.000484553,1455.18,-8803.47,896.501,0.000484553,896.501,-3772.91,10,245,246,250,269,874
8286.49,1.02595e-06,4.59676e-07,2.38207e-07,4.42903e-08,2.38207e-07,-1.09435e-06,2.55451e-07,4.42903e-08,2.55451e-07,1.12949e-07,368.217,1282.65,238.487,1282.65,-7999.62,1375.5,238.487,1375.5,-1498.78,10,251,269,270,336,875
13631.2,1.68767e-06,8.48279e-07,-8.35119e-08,-6.96648e-08,-8.35119e-08,-1.8478e-06,1.61885e-07,-6.96648e-08,1.61885e-07,4.1826e-07,2220.23,-449.681,-375.119,-449.681,-12297.1,871.69,-375.119,871.69,-95.26,10,262,270,273,274,876
10380.3,1.28518e-06,5.13964e-07,8.42366e-08,-6.94913e-08,8.42366e-08,-1.44815e-06,-1.21031e-07,-6.94913e-08,-1.21031e-07,3.98448e-07,603.929,453.581,-374.184,453.581,-9961.31,-651.702,-374.184,-651.702,-18.0823,10,222,268,271,273,877
11366.8,1.40731e-06,5.01863e-07,3.81216e-07,1.76393e-08,3.81216e-07,-1.34976e-06,-5.7878e-07,1.76393e-08,-5.7878e-07,2.41573e-07,253.693,2052.7,94.9805,2052.7,-9716.61,-3116.51,94.9805,-3116.51,-1147.86,10,229,289,316,319,878
16963.9,2.10029e-06,9.74851e-07,-2.95288e-07,1.30272e-07,-2.95288e-07,-1.49098e-06,-1.21479e-06,1.30272e-07,-1.21479e-06,5.32729e-07,5316.2,-1590.01,701.462,-1590.01,-7961.34,-6541.17,701.462,-6541.17,2935.55,10,58,259,303,314,879
8415.59,1.04193e-06,2.43059e-07,-1.40688e-07,-1.59903e-08,-1.40688e-07,-7.25112e-07,-7.11703e-07,-1.59903e-08,-7.11703e-07,1.58864e-07,3.58128,-757.549,-86.1001,-757.549,-5209.65,-3832.25,-86.1001,-3832.25,-449.77,10,211,240,286,302,880
19934.8,2.46811e-06,1.09666e-06,-1.61542e-07,1.16864e-07,-1.61542e-07,-2.37829e-06,-8.25811e-07,1.16864e-07,-8.25811e-07,9.35397e-07,4506.81,-869.847,629.267,-869.847,-14204.5,-4446.68,629.267,-4446.68,3638.45,10,288,289,314,328,881
14565.7,1.80337e-06,8.26694e-07,-3.59659e-07,-2.63139e-07,-3.59659e-07,-1.77124e-06,-4.12185e-07,-2.63139e-07,-4.12185e-07,6.00064e-07,3060.23,-1936.63,-1416.9,-1936.63,-10928.7,-2219.46,-1416.9,-2219.46,1839.91,10,281,287,293,328,882
19965.7,2.47194e-06,1.48898e-07,9.74475e-07,3.57424e-07,9.74475e-07,-2.735e-06,-2.56094e-07,3.57424e-07,-2.56094e-07,7.27375e-07,-6704.67,5247.2,1924.6,5247.2,-22233.4,-1378.96,1924.6,-1378.96,-3589.78,10,22,23,318,325,883
14939.7,1.84968e-06,7.8602e-07,-3.25895e-07,-5.39144e-08,-3.25895e-07,-1.32872e-06,-1.04313e-06,-5.39144e-08,-1.04313e-06,5.95911e-07,4447.27,-1754.82,-290.309,-1754.82,-6939.8,-5616.87,-290.309,-5616.87,3423.61,10,58,142,303,314,884
8198.99,1.01511e-06,4.1606e-08,4.54431e-07,1.1812e-07,4.54431e-07,-8.43507e-07,-4.62336e-07,1.1812e-07,-4.62336e-07,2.53499e-07,-1990.67,2446.94,636.027,2446.94,-6756.68,-2489.5,636.027,-2489.5,-849.709,10,228,229,316,319,885
14785.9,1.83063e-06,8.3063e-07,-6.28811e-07,-1.58967e-07,-6.28811e-07,-1.41806e-06,-6.59728e-07,-1.58967e-07,-6.59728e-07,7.92579e-07,5301.09,-3385.9,-855.974,-3385.9,-6807.22,-3552.39,-855.974,-3552.39,5096.2,10,58,142,145,314,886
23555,2.91633e-06,1.33254e-06,-9.75035e-07,-1.67676e-07,-9.75035e-07,-2.90418e-06,-1.65546e-07,-1.67676e-07,-1.65546e-07,8.43651e-07,4235.17,-5250.21,-902.874,-5250.21,-18577.9,-891.396,-902.874,-891.396,1602.71,10,41,42,278,281,887
17533.8,2.17084e-06,6.68988e-07,1.08861e-07,8.33095e-08,1.08861e-07,-2.55216e-06,-1.16614e-07,8.33095e-08,-1.16614e-07,7.08948e-07,-1139.83,586.176,448.59,586.176,-18484.5,-627.918,448.59,-627.918,-924.662,10,266,287,288,289,888
13060.2,1.61698e-06,4.42955e-07,-8.3057e-07,-7.51516e-08,-8.3057e-07,-1.45381e-06,-3.73042e-07,-7.51516e-08,-3.73042e-07,3.19592e-07,-406.53,-4472.3,-404.662,-4472.3,-10619.9,-2008.69,-404.662,-2008.69,-1070.79,10,281,292,298,299,889
19470,2.41056e-06,9.37126e-07,5.09454e-07,3.66485e-07,5.09454e-07,-2.61647e-06,-5.4445e-07,3.66485e-07,-5.4445e-07,3.98245e-07,-127.65,2743.22,1973.38,2743.22,-19262.5,-2931.66,1973.38,-2931.66,-3029.33,10,22,64,288,318,890
15655.7,1.93833e-06,3.52614e-07,8.96917e-07,2.52041e-07,8.96917e-07,-1.81682e-06,-5.29092e-08,2.52041e-07,-5.29092e-08,7.88206e-07,-831.327,4829.56,1357.14,4829.56,-12512.9,-284.886,1357.14,-284.886,1514.17,10,25,63,322,326,891
12167.4,1.50644e-06,5.16526e-07,3.00373e-07,-6.6694e-08,3.00373e-07,-1.71251e-06,9.00785e-09,-6.6694e-08,9.00785e-09,4.48595e-07,-237.039,1617.4,-359.122,1617.4,-12239.6,48.5036,-359.122,48.5036,-602.826,10,262,267,268,271,892
6416.12,7.94375e-07,0,2.23037e-08,0,2.23037e-08,-1.15357e-06,1.70881e-07,0,1.70881e-07,0,-4658.66,120.097,4.10446e-05,120.097,-10870.2,920.129,4.10446e-05,920.129,-4658.66,10,225,244,247,270,893
9889.26,1.22438e-06,4.57687e-07,4.35677e-07,-1.59742e-07,4.35677e-07,-1.33634e-06,-2.30748e-07,-1.59742e-07,-2.30748e-07,-4.76984e-08,-1276.57,2345.95,-860.151,2345.95,-10936.7,-1242.49,-860.151,-1242.49,-3997.89,10,221,229,267,268,894
15668.4,1.9399e-06,8.8495e-07,6.7186e-07,-9.90121e-08,6.7186e-07,-1.89817e-06,3.21193e-07,-9.90121e-08,3.21193e-07,4.75632e-07,2594.04,3617.71,-533.143,3617.71,-12392,1729.5,-533.143,1729.5,390.023,10,31,39,264,336,895
14764.4,1.82797e-06,6.90775e-07,9.53173e-08,9.60497e-08,9.53173e-08,-2.03885e-06,5.58588e-07,9.60497e-08,5.58588e-07,2.95092e-07,-532.877,513.249,517.191,513.249,-15230.9,3007.79,517.191,3007.79,-2663.49,10,270,272,333,335,896
11970.1,1.48201e-06,1.04751e-06,3.88722e-07,5.8866e-07,3.88722e-07,-9.88342e-07,-2.41241e-07,5.8866e-07,-2.41241e-07,-3.77666e-07,4354.14,2093.12,3169.71,2093.12,-6608.13,-1298.99,3169.71,-1298.99,-3319.87,10,59,60,170,305,897
8007.39,9.9139e-07,1.92233e-07,4.1934e-07,-4.91501e-08,4.1934e-07,-6.80887e-07,-5.33631e-07,-4.91501e-08,-5.33631e-07,2.56271e-07,96.6253,2257.98,-264.657,2257.98,-4604.8,-2873.4,-264.657,-2873.4,441.444,10,164,238,304,308,898
12229.6,1.51414e-06,4.72758e-07,3.89268e-07,2.68066e-08,3.89268e-07,-1.3502e-06,-6.07163e-07,2.68066e-08,-6.07163e-07,6.1167e-07,1472.3,2096.06,144.343,2096.06,-8343.64,-3269.34,144.343,-3269.34,2220.28,10,229,267,289,316,899
8240.39,1.02024e-06,1.66611e-09,5.37526e-07,-2.2401e-08,5.37526e-07,-8.07212e-07,-4.63742e-07,-2.2401e-08,-4.63742e-07,1.78433e-07,-2523.61,2894.37,-120.623,2894.37,-6879.12,-2497.07,-120.623,-2497.07,-1571.79,10,227,228,316,320,900
6269.52,7.76225e-07,0,-2.3187e-07,0,-2.3187e-07,-1.02777e-06,2.14541e-07,0,2.14541e-07,0,-4150.6,-1248.53,-0.000535722,-1248.53,-9684.75,1155.22,-0.000535722,1155.22,-4150.6,10,247,248,252,332,901
16928.9,2.09596e-06,8.43215e-07,9.47935e-07,-1.77374e-07,9.47935e-07,-7.51404e-07,-1.28828e-06,-1.77374e-07,-1.28828e-06,5.02132e-07,6938.97,5104.26,-955.092,5104.26,-1647.44,-6936.88,-955.092,-6936.88,5102.37,10,60,282,283,305,902
19928.3,2.46732e-06,1.19894e-06,-4.47581e-07,-2.62617e-07,-4.47581e-07,-2.57149e-06,-2.88777e-07,-2.62617e-07,-2.88777e-07,7.19804e-07,3819.68,-2410.06,-1414.09,-2410.06,-16482.6,-1554.96,-1414.09,-1554.96,1239.73,10,42,143,276,281,903
19449.4,2.40802e-06,9.89727e-07,-5.3342e-07,-1.28187e-08,-5.3342e-07,-2.50135e-06,-8.83604e-10,-1.28187e-08,-8.83604e-10,9.91178e-07,3227.45,-2872.27,-69.0229,-2872.27,-15570.7,-4.75327,-69.0229,-4.75327,3235.26,10,42,275,276,278,904
8385.78,1.03824e-06,2.05597e-07,-7.22955e-07,-9.37537e-09,-7.22955e-07,-7.68545e-07,-1.48249e-07,-9.37537e-09,-1.48249e-07,4.10226e-10,-1164.73,-3892.84,-50.4816,-3892.84,-6410.13,-798.266,-50.4816,-798.266,-2269.59,10,177,178,181,324,905
29560.3,3.65985e-06,1.99459e-06,3.89388e-07,-8.53869e-08,3.89388e-07,-3.80383e-06,-5.65982e-07,-8.53869e-08,-5.65982e-07,9.61802e-07,7317.63,2096.72,-459.775,2096.72,-23904.7,-3047.6,-459.775,-3047.6,1756.46,10,22,36,277,280,906
15565.5,1.92715e-06,7.68885e-07,3.71037e-07,7.88463e-08,3.71037e-07,-2.09534e-06,-2.08509e-08,7.88463e-08,-2.08509e-08,6.67378e-07,1478.47,1997.89,424.557,1997.89,-13944.3,-112.271,424.557,-112.271,931.888,10,262,266,267,325,907
11076.2,1.37134e-06,1.92711e-07,5.92611e-07,6.86117e-08,5.92611e-07,-1.18572e-06,-4.40383e-07,6.86117e-08,-4.40383e-07,5.79008e-07,-634.268,3190.98,369.447,3190.98,-8056.59,-2371.29,369.447,-2371.29,1445.8,10,63,313,322,326,908
11511.7,1.42526e-06,7.14039e-07,-5.1393e-07,1.88875e-07,-5.1393e-07,-1.30534e-06,3.45209e-07,1.88875e-07,3.45209e-07,2.09571e-07,2303.22,-2767.32,1017.02,-2767.32,-8570.35,1858.82,1017.02,1858.82,-413.149,10,44,45,205,333,909
7446.42,9.21936e-07,5.74182e-08,-3.71889e-07,-1.29377e-07,-3.71889e-07,-1.02837e-06,2.72604e-07,-1.29377e-07,2.72604e-07,9.77657e-08,-3217.15,-2002.48,-696.645,-2002.48,-9063.69,1467.87,-696.645,1467.87,-2999.89,10,248,252,331,332,910
13400.1,1.65906e-06,5.38151e-07,-8.65718e-07,1.99065e-07,-8.65718e-07,-1.37928e-06,1.85445e-07,1.99065e-07,1.85445e-07,5.61876e-07,1769.95,-4661.57,1071.89,-4661.57,-8554.68,998.547,1071.89,998.547,1897.71,10,51,53,284,297,911
7536.5,9.3309e-07,0,-4.30693e-07,0,-4.30693e-07,-5.84177e-07,-5.94762e-07,0,-5.94762e-07,0,-2359.18,-2319.12,0.00275865,-2319.12,-5504.76,-3202.57,0.00275865,-3202.57,-2359.18,10,216,237,241,309,912
22254,2.75525e-06,1.28044e-06,-9.52952e-07,8.76131e-08,-9.52952e-07,-2.84478e-06,-2.81585e-08,8.76131e-08,-2.81585e-08,4.69981e-07,2475.04,-5131.31,471.765,-5131.31,-19737.7,-151.613,471.765,-151.613,-1888.94,10,41,42,52,278,913
9213.87,1.14076e-06,2.90396e-07,7.06703e-07,2.26049e-08,7.06703e-07,-6.42978e-07,-4.63593e-07,2.26049e-08,-4.63593e-07,1.84338e-07,884.214,3805.32,121.716,3805.32,-4141.66,-2496.27,121.716,-2496.27,313.134,10,163,184,189,320,914
6966.48,8.62515e-07,3.31953e-07,-3.77225e-07,-5.25804e-08,-3.77225e-07,-7.82045e-07,3.01577e-07,-5.25804e-08,3.01577e-07,-3.77792e-08,-182.813,-2031.21,-283.126,-2031.21,-6181.27,1623.87,-283.126,1623.87,-2173.68,10,207,249,253,331,915
7360.24,9.11268e-07,1.14585e-07,4.07021e-07,1.95641e-07,4.07021e-07,-8.54268e-07,-2.783e-08,1.95641e-07,-2.783e-08,3.71957e-07,-868.056,2191.65,1053.45,2191.65,-6084.96,-149.853,1053.45,-149.853,517.794,10,25,175,189,322,916
7902.98,9.78464e-07,9.75555e-08,-6.01175e-07,-1.02687e-07,-6.01175e-07,-6.07992e-07,-4.23663e-07,-1.02687e-07,-4.23663e-07,1.00374e-07,-1130.73,-3237.09,-552.927,-3237.09,-4929.84,-2281.26,-552.927,-2281.26,-1115.55,10,217,219,232,300,917
11821.8,1.46366e-06,6.51499e-07,-4.78557e-07,-8.24041e-08,-4.78557e-07,-1.02603e-06,-7.42334e-07,-8.24041e-08,-7.42334e-07,4.03488e-07,3625.02,-2576.85,-443.715,-2576.85,-5407.81,-3997.18,-443.715,-3997.18,2289.57,10,140,141,279,311,918
7988.76,9.89084e-07,2.56437e-07,-4.3455e-07,-1.37886e-07,-4.3455e-07,-8.14275e-07,-4.02949e-07,-1.37886e-07,-4.02949e-07,2.01377e-07,-58.7478,-2339.88,-742.464,-2339.88,-5824.13,-2169.73,-742.464,-2169.73,-355.228,10,12,219,298,300,919
6331.83,7.83939e-07,0,-4.67991e-07,0,-4.67991e-07,-7.27831e-07,2.55588e-07,0,2.55588e-07,0,-2939.32,-2519.95,-0.00128814,-2519.95,-6858.42,1376.25,-0.00128814,1376.25,-2939.32,10,202,207,249,253,920
8026.1,9.93707e-07,2.2755e-07,-7.33939e-07,5.27165e-08,-7.33939e-07,-6.16079e-07,8.79705e-08,5.27165e-08,8.79705e-08,6.81593e-09,-316.267,-3951.98,283.857,-3951.98,-4858.9,473.687,283.857,473.687,-1504.84,10,48,201,223,295,921
8195.24,1.01465e-06,0,6.79001e-07,0,6.79001e-07,-6.19584e-07,-4.27936e-07,0,-4.27936e-07,0,-2502.17,3656.16,-0.00312921,3656.16,-5838.4,-2304.27,-0.00312921,-2304.27,-2502.17,10,183,184,189,227,922
9747.43,1.20682e-06,3.59626e-07,6.35989e-07,1.01303e-07,6.35989e-07,-7.41971e-07,-5.75484e-07,1.01303e-07,-5.75484e-07,1.68047e-07,1071,3424.56,545.474,3424.56,-4860.68,-3098.76,545.474,-3098.76,39.4238,10,233,306,308,320,923
8354.12,1.03432e-06,2.40591e-07,4.57986e-07,-3.05298e-08,4.57986e-07,-6.26438e-07,-6.29073e-07,-3.05298e-08,-6.29073e-07,-3.79062e-08,-415.826,2466.08,-164.394,2466.08,-5084.45,-3387.32,-164.394,-3387.32,-1915.43,10,233,238,307,308,924
7860.49,9.73203e-07,0,5.0603e-07,0,5.0603e-07,-5.77547e-07,-5.85738e-07,0,-5.85738e-07,0,-2332.41,2724.78,-0.00319201,2724.78,-5442.29,-3153.98,-0.00319201,-3153.98,-2332.41,10,185,233,238,308,925
8488.7,1.05098e-06,2.09563e-07,5.16955e-07,8.97155e-08,5.16955e-07,-7.4863e-07,-4.68368e-07,8.97155e-08,-4.68368e-07,2.89646e-07,121.139,2783.6,483.08,2783.6,-5038.37,-2521.98,483.08,-2521.98,552.356,10,163,164,185,308,926
13479.5,1.66889e-06,7.22517e-07,4.86657e-07,2.025e-07,4.86657e-07,-1.4478e-06,-5.9878e-07,2.025e-07,-5.9878e-07,5.45569e-07,3164.68,2620.46,1090.39,2620.46,-8521.67,-3224.2,1090.39,-3224.2,2211.88,10,306,312,313,319,927
7083.04,8.76948e-07,1.26149e-07,5.68132e-07,1.24465e-07,5.68132e-07,-5.62597e-07,-8.52258e-08,1.24465e-07,-8.52258e-08,3.63128e-07,383.16,3059.17,670.193,3059.17,-3325.48,-458.908,670.193,-458.908,1659.2,10,174,175,189,322,928
9201.41,1.13922e-06,2.81948e-07,7.9102e-07,5.71088e-08,7.9102e-07,-7.71733e-07,-7.44006e-08,5.71088e-08,-7.44006e-08,1.83945e-07,283.051,4259.34,307.508,4259.34,-5390.63,-400.618,307.508,-400.618,-244.66,10,176,220,315,330,929
8769.36,1.08573e-06,8.49329e-08,7.37014e-07,1.21337e-07,7.37014e-07,-5.96608e-07,-2.95261e-07,1.21337e-07,-2.95261e-07,3.51347e-07,-190.153,3968.54,653.352,3968.54,-3860,-1589.87,653.352,-1589.87,1244.38,10,174,183,189,323,930
7858.96,9.73013e-07,2.86761e-07,5.0479e-07,-7.87547e-08,5.0479e-07,-8.57798e-07,1.627e-07,-7.87547e-08,1.627e-07,2.48547e-07,241.73,2718.1,-424.063,2718.1,-5921.29,876.076,-424.063,876.076,35.9624,10,245,265,269,321,931
6687,8.27914e-07,2.07473e-07,4.47577e-07,-6.80959e-08,4.47577e-07,-7.27954e-07,2.52475e-07,-6.80959e-08,2.52475e-07,2.23483e-08,-894.535,2410.03,-366.669,2410.03,-5931.46,1359.48,-366.669,1359.48,-1891.36,10,195,199,200,245,932
6083.39,7.53181e-07,0,4.24429e-07,0,4.24429e-07,-7.30072e-07,2.60102e-07,0,2.60102e-07,0,-2948.37,2285.39,0.00118887,2285.39,-6879.53,1400.55,0.00118887,1400.55,-2948.37,10,195,199,245,250,933
7439.56,9.21087e-07,0,4.18148e-07,0,4.18148e-07,-8.10339e-07,-4.92514e-07,0,-4.92514e-07,0,-3272.53,2251.57,-0.00221786,2251.57,-7635.9,-2652,-0.00221786,-2652,-3272.53,10,229,234,235,319,934
7632.01,9.44915e-07,0,2.92202e-07,0,2.92202e-07,-7.03e-07,-6.47711e-07,0,-6.47711e-07,0,-2839.04,1573.39,-0.00203821,1573.39,-6624.44,-3487.68,-0.00203821,-3487.68,-2839.04,10,234,235,239,307,935
7439.56,9.21087e-07,0,4.18148e-07,0,4.18148e-07,-8.10339e-07,-4.92514e-07,0,-4.92514e-07,0,-3272.53,2251.57,-0.00221786,2251.57,-7635.9,-2652,-0.00221786,-2652,-3272.53,10,228,229,234,319,936
18550.6,2.29674e-06,1.24584e-06,3.26912e-07,4.1765e-08,3.26912e-07,-2.05867e-06,-9.60081e-07,4.1765e-08,-9.60081e-07,3.60298e-07,4880.76,1760.3,224.89,1760.3,-12912.8,-5169.68,224.89,-5169.68,112.463,10,59,67,282,314,937
9177.52,1.13626e-06,5.93368e-07,3.0293e-07,7.21251e-08,3.0293e-07,-8.39101e-07,-5.92173e-07,7.21251e-08,-5.92173e-07,2.9056e-08,2320.01,1631.16,388.364,1631.16,-5393.29,-3188.62,388.364,-3188.62,-718.593,10,285,304,305,307,938
8696.33,1.07669e-06,2.2592e-07,5.23949e-07,1.78939e-07,5.23949e-07,-8.02243e-07,-4.38619e-07,1.78939e-07,-4.38619e-07,2.76376e-07,5.16062,2821.27,963.517,2821.27,-5531.11,-2361.79,963.517,-2361.79,276.848,10,233,306,319,320,939
5600.56,6.93403e-07,2.80632e-07,-3.52296e-07,-4.25161e-08,-3.52296e-07,-5.43893e-07,-1.25453e-07,-4.25161e-08,-1.25453e-07,2.51722e-07,1464.49,-1896.98,-228.932,-1896.98,-2975.26,-675.517,-228.932,-675.517,1308.82,10,180,181,219,324,940
26340,3.26115e-06,1.27235e-06,-1.0692e-06,5.44824e-07,-1.0692e-06,-2.82609e-06,-1.1407e-06,5.44824e-07,-1.1407e-06,9.85909e-07,4557.81,-5757.26,2933.65,-5757.26,-17510.7,-6142.25,2933.65,-6142.25,3015.45,10,56,143,145,328,941
16897.8,2.09211e-06,1.63614e-06,3.12092e-07,3.87484e-07,3.12092e-07,-1.10177e-06,-1.06107e-06,3.87484e-07,-1.06107e-06,5.92394e-07,13360.3,1680.5,2086.45,1680.5,-1382.22,-5713.44,2086.45,-5713.44,7740.18,10,58,59,259,314,942
10712.4,1.3263e-06,7.35517e-07,5.78179e-08,6.34117e-08,5.78179e-08,-1.17506e-06,-5.82923e-07,6.34117e-08,-5.82923e-07,2.02962e-07,3005.03,311.328,341.448,311.328,-7282.7,-3138.81,341.448,-3138.81,137.434,10,162,167,259,261,943
22264.7,2.75657e-06,1.27709e-06,6.68526e-07,-9.24227e-08,6.68526e-07,-2.89147e-06,-6.53892e-07,-9.24227e-08,-6.53892e-07,3.82456e-07,1901.5,3599.78,-497.659,3599.78,-20544.6,-3520.97,-497.659,-3520.97,-2915.76,10,64,65,66,318,944
26343.1,3.26153e-06,1.4417e-06,-9.64841e-07,2.07748e-07,-9.64841e-07,-3.26796e-06,1.94174e-07,2.07748e-07,1.94174e-07,1.15169e-06,5038.71,-5195.32,1118.65,-5195.32,-20321,1045.58,1118.65,1045.58,3477.1,10,36,43,54,275,945
11833,1.46504e-06,5.56173e-07,3.969e-07,-5.22962e-08,3.969e-07,-1.56649e-06,2.57775e-07,-5.22962e-08,2.57775e-07,3.72244e-07,417.943,2137.15,-281.595,2137.15,-11011.8,1388.02,-281.595,1388.02,-572.445,10,264,269,321,336,946
6251.68,7.74018e-07,1.21673e-07,-4.83427e-07,-1.13701e-07,-4.83427e-07,-5.7e-07,4.99076e-08,-1.13701e-07,4.99076e-08,2.67582e-07,-74.7734,-2603.07,-612.236,-2603.07,-3799.17,268.733,-612.236,268.733,710.889,10,47,48,49,295,947
18206.7,2.25416e-06,8.27103e-07,5.3992e-08,-5.89352e-08,5.3992e-08,-2.5578e-06,3.2745e-07,-5.89352e-08,3.2745e-07,7.15415e-07,353.416,290.726,-317.344,290.726,-17873,1763.2,-317.344,1763.2,-247.988,10,262,273,274,277,948
9164.14,1.13461e-06,4.14482e-07,-4.82388e-07,4.70903e-08,-4.82388e-07,-1.15461e-06,1.64751e-07,4.70903e-08,1.64751e-07,1.43541e-07,-177.468,-2597.47,253.563,-2597.47,-8626.43,887.119,253.563,887.119,-1636.39,10,295,297,331,332,949
9729.65,1.20462e-06,5.43573e-07,-1.87353e-07,4.70237e-08,-1.87353e-07,-1.21017e-06,4.7489e-07,4.70237e-08,4.7489e-07,7.87621e-08,552.964,-1008.82,253.204,-1008.82,-8890.29,2557.1,253.204,2557.1,-1949.87,10,190,205,331,333,950
9485.47,1.17439e-06,3.35361e-07,-4.43027e-07,8.14216e-08,-4.43027e-07,-1.19978e-06,2.41497e-07,8.14216e-08,2.41497e-07,3.10774e-07,-430.08,-2385.53,438.424,-2385.53,-8696.23,1300.37,438.424,1300.37,-562.473,10,45,207,297,331,951
5130.77,6.35237e-07,0,7.4323e-08,0,7.4323e-08,-7.07093e-07,3.61193e-07,0,3.61193e-07,0,-2855.57,400.201,0.0002891,400.201,-6663,1944.89,0.0002891,1944.89,-2855.57,10,192,251,252,334,952
7004.34,8.67204e-07,3.77977e-07,-3.14716e-07,1.68789e-07,-3.14716e-07,-7.74222e-07,2.88948e-07,1.68789e-07,2.88948e-07,5.3559e-08,651.328,-1694.62,908.864,-1694.62,-5552.83,1555.87,908.864,1555.87,-1095.54,10,203,205,207,331,953
6966.7,8.62543e-07,3.42051e-07,3.18089e-07,-1.11771e-07,3.18089e-07,-7.551e-07,3.29112e-07,-1.11771e-07,3.29112e-07,1.17802e-07,649.463,1712.79,-601.841,1712.79,-5258.27,1772.14,-601.841,1772.14,-558.029,10,194,197,199,337,954
8746.37,1.08288e-06,1.6078e-07,-6.85294e-07,-5.85149e-09,-6.85294e-07,-8.71068e-07,4.5904e-08,-5.85149e-09,4.5904e-08,2.96461e-07,-805.493,-3690.05,-31.5077,-3690.05,-6361.6,247.176,-31.5077,247.176,-74.9022,10,223,291,295,296,955
6773.16,8.3858e-07,0,5.5804e-07,0,5.5804e-07,-7.12912e-07,2.15844e-07,0,2.15844e-07,0,-2879.07,3004.83,0.00129715,3004.83,-6717.84,1162.24,0.00129715,1162.24,-2879.07,10,195,196,200,245,956
7200.01,8.91428e-07,0,-3.18621e-07,0,-3.18621e-07,-1.14605e-06,-2.38018e-07,0,-2.38018e-07,0,-4628.29,-1715.65,0.000816714,-1715.65,-10799.3,-1281.64,0.000816714,-1281.64,-4628.29,10,224,225,230,290,957
11716.3,1.45059e-06,4.87744e-07,-1.81008e-07,-4.9547e-08,-1.81008e-07,-1.68178e-06,1.11973e-07,-4.9547e-08,1.11973e-07,4.33063e-07,-446.847,-974.655,-266.792,-974.655,-12128.9,602.932,-266.792,602.932,-741.284,10,270,273,274,294,958
14222.9,1.76093e-06,1.40031e-06,-6.99808e-08,-2.68212e-07,-6.99808e-08,-1.27768e-06,6.65061e-07,-2.68212e-07,6.65061e-07,-1.40859e-07,7466.45,-376.82,-1444.22,-376.82,-6953.47,3581.1,-1444.22,3581.1,-832.124,10,32,33,190,335,959
6416.12,7.94375e-07,0,2.23037e-08,0,2.23037e-08,-1.15357e-06,1.70881e-07,0,1.70881e-07,0,-4658.66,120.097,4.10446e-05,120.097,-10870.2,920.129,4.10446e-05,920.129,-4658.66,10,247,251,252,270,960
7554.18,9.35278e-07,0,2.32977e-07,0,2.32977e-07,-1.34276e-06,-2.78317e-08,0,-2.78317e-08,0,-5422.71,1254.49,-6.98293e-05,1254.49,-12653,-149.863,-6.98293e-05,-149.863,-5422.71,10,221,243,244,271,961
19415.6,2.40384e-06,9.33921e-07,-7.13059e-08,9.80503e-08,-7.13059e-08,-2.65388e-06,1.2442e-07,9.80503e-08,1.2442e-07,9.44662e-07,1897.76,-383.959,527.964,-383.959,-17421.2,669.959,527.964,669.959,1955.6,10,262,272,274,277,962
6826.59,8.45197e-07,2.18849e-07,5.16122e-07,2.70373e-08,5.16122e-07,-6.04107e-07,3.90535e-08,2.70373e-08,3.90535e-08,3.49079e-07,1032.31,2779.12,145.586,2779.12,-3399,210.287,145.586,210.287,1733.55,10,27,29,30,321,963
7419.73,9.18633e-07,0,7.3105e-07,-3.97047e-23,7.3105e-07,-5.18407e-07,9.43349e-08,-3.97047e-23,9.43349e-08,0,-2093.57,3936.42,0.000742685,3936.42,-4885,507.958,0.000742685,507.958,-2093.57,10,28,196,242,245,964
6526.46,8.08036e-07,0,4.69247e-07,0,4.69247e-07,-8.98939e-07,-1.1654e-08,0,-1.1654e-08,0,-3630.33,2526.72,-5.88925e-05,2526.72,-8470.79,-62.7521,-5.88925e-05,-62.7521,-3630.34,10,242,243,245,265,965
8175.36,1.01219e-06,1.70599e-07,-5.21669e-07,-1.54125e-07,-5.21669e-07,-6.17065e-07,-5.27767e-07,-1.54125e-07,-5.27767e-07,1.18197e-07,-407.096,-2808.99,-829.901,-2808.99,-4648.37,-2841.82,-829.901,-2841.82,-689.258,10,209,216,219,300,966
19195,2.37652e-06,1.08409e-07,9.69774e-07,1.7198e-07,9.69774e-07,-2.43768e-06,2.99345e-07,1.7198e-07,2.99345e-07,9.95652e-07,-4802.08,5221.88,926.039,5221.88,-18511.8,1611.88,926.039,1611.88,-24.6042,10,22,23,40,325,967
19961.8,2.47146e-06,1.03738e-06,7.99511e-07,-1.27709e-07,7.99511e-07,-2.40794e-06,3.71823e-07,-1.27709e-07,3.71823e-07,8.82923e-07,3616.54,4305.07,-687.668,4305.07,-14935.2,2002.14,-687.668,2002.14,2784.84,10,23,38,40,325,968
7439.56,9.21087e-07,0,4.18148e-07,0,4.18148e-07,-8.10339e-07,-4.92514e-07,0,-4.92514e-07,0,-3272.53,2251.57,-0.00221786,2251.57,-7635.9,-2652,-0.00221786,-2652,-3272.53,10,228,233,234,319,969
29981.2,3.71196e-06,3.18918e-06,-8.66187e-07,3.94996e-07,-8.66187e-07,-2.69287e-06,-8.13695e-07,3.94996e-07,-8.13695e-07,8.38033e-07,22561.1,-4664.05,2126.89,-4664.05,-9111.44,-4381.43,2126.89,-4381.43,9901.05,10,21,22,36,280,970
22564.3,2.79367e-06,1.30125e-06,-3.21975e-07,4.57927e-07,-3.21975e-07,-2.73235e-06,-8.17591e-07,4.57927e-07,-8.17591e-07,8.37664e-07,4610.12,-1733.69,2465.76,-1733.69,-17109.3,-4402.42,2465.76,-4402.42,2113.86,10,21,36,43,280,971
26756.9,3.31275e-06,1.15602e-06,-7.14642e-07,-1.85505e-07,-7.14642e-07,-3.36927e-06,1.88839e-07,-1.85505e-07,1.88839e-07,1.64859e-06,3944.31,-3848.1,-998.867,-3848.1,-20422.6,1016.86,-998.867,1016.86,6596.63,10,35,36,54,275,972
19832.8,2.45548e-06,1.01909e-06,-6.29408e-07,3.43623e-08,-6.29408e-07,-2.54727e-06,-6.93768e-07,3.43623e-08,-6.93768e-07,4.15323e-07,993.14,-3389.14,185.024,-3389.14,-18210.3,-3735.69,185.024,-3735.69,-2257.91,10,143,144,146,281,973
7096.89,8.78662e-07,0,4.94013e-08,2.38031e-08,4.94013e-08,-1.00509e-06,4.41597e-07,2.38031e-08,4.41597e-07,1.18259e-07,-3581.45,266.007,128.171,266.007,-8993.5,2377.83,128.171,2377.83,-2944.67,10,251,252,334,335,974
21592.1,2.6733e-06,1.25429e-06,5.2167e-07,4.79716e-08,5.2167e-07,-2.8033e-06,2.27199e-07,4.79716e-08,2.27199e-07,8.84854e-07,4071.62,2809.01,258.307,2809.01,-17777,1223.38,258.307,1223.38,2082.35,10,35,39,40,277,975
16432.1,2.03445e-06,5.89954e-07,6.7549e-07,-2.91535e-08,6.7549e-07,-2.04094e-06,2.98201e-07,-2.91535e-08,2.98201e-07,8.50353e-07,751.004,3637.26,-156.981,3637.26,-13415.4,1605.7,-156.981,1605.7,2153.15,10,37,39,40,264,976
9558.97,1.18349e-06,3.56773e-07,-4.10157e-07,2.12786e-07,-4.10157e-07,-1.15439e-06,3.75487e-07,2.12786e-07,3.75487e-07,2.13772e-07,-436.764,-2208.54,1145.77,-2208.54,-8573.81,2021.85,1145.77,2021.85,-1206.77,10,45,205,207,331,977
13473.1,1.6681e-06,5.89612e-07,-8.96148e-07,1.15323e-07,-8.96148e-07,-1.37566e-06,2.99209e-07,1.15323e-07,2.99209e-07,4.1091e-07,1659.83,-4825.42,620.971,-4825.42,-8922.39,1611.12,620.971,1611.12,697.596,10,45,51,53,297,978
5836.97,7.22672e-07,0,2.70247e-07,0,2.70247e-07,-9.34245e-07,1.66493e-07,0,1.66493e-07,0,-3772.91,1455.18,0.000484553,1455.18,-8803.47,896.501,0.000484553,896.501,-3772.91,10,246,247,251,269,979
14251.2,1.76444e-06,8.02012e-07,5.11526e-07,-1.82853e-08,5.11526e-07,-1.65506e-06,5.7301e-07,-1.82853e-08,5.7301e-07,4.13636e-07,2543.94,2754.37,-98.4601,2754.37,-10686.5,3085.44,-98.4601,3085.44,452.679,10,31,32,39,336,980
9787.35,1.21177e-06,3.58924e-07,4.57005e-07,-2.04185e-07,4.57005e-07,-1.18373e-06,3.23041e-07,-2.04185e-07,3.23041e-07,2.61634e-07,-341.671,2460.8,-1099.46,2460.8,-8648.26,1739.45,-1099.46,1739.45,-865.547,10,31,197,199,337,981
15281.5,1.892e-06,1.40127e-06,-7.31957e-08,-2.4336e-07,-7.31957e-08,-1.48698e-06,6.70073e-07,-2.4336e-07,6.70073e-07,4.64067e-07,9073.23,-394.131,-1310.4,-394.131,-6478.9,3608.08,-1310.4,3608.08,4026.76,10,32,33,39,335,982
17453.8,2.16095e-06,7.01583e-07,-6.84607e-07,1.11517e-08,-6.84607e-07,-2.20422e-06,3.81866e-07,1.11517e-08,3.81866e-07,7.75156e-07,839.814,-3686.35,60.0493,-3686.35,-14806.8,2056.21,60.0493,2056.21,1235.97,10,53,274,275,284,983
5836.97,7.22672e-07,0,2.70247e-07,0,2.70247e-07,-9.34245e-07,1.66493e-07,0,1.66493e-07,0,-3772.91,1455.18,0.000484553,1455.18,-8803.47,896.501,0.000484553,896.501,-3772.91,10,244,246,247,269,984
24321.7,3.01126e-06,1.26983e-06,8.75366e-07,-4.47896e-07,8.75366e-07,-2.22207e-06,1.62402e-06,-4.47896e-07,1.62402e-06,1.904e-07,3760.81,4713.53,-2411.76,4713.53,-15041.8,8744.75,-2411.76,8744.75,-2051.53,10,33,34,39,335,985
23842,2.95187e-06,1.33606e-06,1.08611e-07,2.50552e-07,1.08611e-07,-2.41228e-06,1.64662e-06,2.50552e-07,1.64662e-06,3.04556e-07,4077.73,584.828,1349.13,584.828,-16105.6,8866.43,1349.13,8866.43,-1476.52,10,33,34,44,335,986
22432.8,2.77739e-06,1.28465e-06,-2.4159e-07,-4.93673e-07,-2.4159e-07,-2.86313e-06,2.66156e-08,-4.93673e-07,2.66156e-08,1.09353e-06,4958.87,-1300.85,-2658.24,-1300.85,-17375.4,143.321,-2658.24,143.321,3929.72,10,21,43,55,280,987
24780,3.06801e-06,1.27918e-06,-6.29042e-07,3.52248e-07,-6.29042e-07,-2.83124e-06,5.8718e-07,3.52248e-07,5.8718e-07,1.65567e-06,7306.28,-3387.16,1896.72,-3387.16,-14826.7,3161.74,1896.72,3161.74,9333.52,10,34,35,53,272,988
8230.14,1.01897e-06,2.79711e-07,-5.14503e-07,-4.34017e-08,-5.14503e-07,-9.48041e-07,4.18106e-08,-4.34017e-08,4.18106e-08,2.98767e-07,13.6645,-2770.4,-233.702,-2770.4,-6597.31,225.134,-233.702,225.134,116.275,10,47,49,295,297,989
12936.7,1.60168e-06,5.85003e-07,-6.98922e-07,1.87266e-08,-6.98922e-07,-1.22112e-06,-6.74944e-07,1.87266e-08,-6.74944e-07,3.83638e-07,2130.39,-3763.43,100.836,-3763.43,-7594.88,-3634.31,100.836,-3634.31,1046.11,10,140,279,301,311,990
7806.67,9.66539e-07,0,-2.7009e-07,0,-2.7009e-07,-8.2419e-07,-6.33459e-07,0,-6.33459e-07,0,-3328.47,-1454.33,0.00184252,-1454.33,-7766.42,-3410.93,0.00184252,-3410.93,-3328.46,10,236,240,241,310,991
9419.49,1.16622e-06,0,-3.8447e-07,0,-3.8447e-07,-7.22873e-07,-8.35497e-07,0,-8.35497e-07,0,-2919.31,-2070.22,0.00345933,-2070.22,-6811.71,-4498.83,0.00345933,-4498.83,-2919.3,10,211,214,240,241,992
8866.33,1.09774e-06,3.16245e-07,-3.68469e-07,1.33332e-08,-3.68469e-07,-7.26291e-07,-6.67121e-07,1.33332e-08,-6.67121e-07,1.86319e-07,799.336,-1984.06,71.7964,-1984.06,-4814.33,-3592.19,71.7964,-3592.19,99.7409,10,210,211,241,302,993
8146.55,1.00862e-06,1.67574e-08,-4.47593e-07,6.2666e-08,-4.47593e-07,-6.40748e-07,-6.04125e-07,6.2666e-08,-6.04125e-07,1.94974e-07,-1642.34,-2410.12,337.436,-2410.12,-5182.77,-3252.98,337.436,-3252.98,-682.716,10,210,216,241,309,994
19395,2.40129e-06,1.02813e-06,2.56457e-07,5.92309e-08,2.56457e-07,-2.58199e-06,-2.32284e-07,5.92309e-08,-2.32284e-07,9.0517e-07,2916.37,1380.93,318.936,1380.93,-16522.8,-1250.76,318.936,-1250.76,2254.26,10,266,277,280,325,995
8362.49,1.03535e-06,7.32858e-12,2.61128e-07,-1.06845e-11,2.61128e-07,-4.70506e-07,-8.13627e-07,-1.06845e-11,-8.13627e-07,-4.56435e-12,-1900.08,1406.07,-0.05982,1406.07,-4433.63,-4381.07,-0.05982,-4381.07,-1900.14,10,159,188,239,285,996
8738.85,1.08195e-06,2.28922e-07,1.4389e-07,-1.84005e-08,1.4389e-07,-7.15169e-07,-7.60393e-07,-1.84005e-08,-7.60393e-07,1.6638e-07,-59.1177,774.792,-99.0804,774.792,-5142.69,-4094.42,-99.0804,-4094.42,-395.879,10,239,258,260,286,997
5886.8,7.28841e-07,2.49866e-07,1.90387e-07,-7.67006e-08,1.90387e-07,-7.16118e-07,-8.76949e-08,-7.67006e-08,-8.76949e-08,3.5502e-07,896.225,1025.16,-413.003,1025.16,-4305.23,-472.203,-413.003,-472.203,1462.44,10,62,163,189,320,998
9381.62,1.16153e-06,1.50996e-07,3.39757e-07,-6.21635e-09,3.39757e-07,-7.26721e-07,-8.22282e-07,-6.21635e-09,-8.22282e-07,1.5763e-10,-1511.36,1829.46,-33.4763,1829.46,-6237.55,-4427.67,-33.4763,-4427.67,-2323.56,10,165,187,238,285,999
17989.8,2.2273e-06,1.00912e-06,5.28769e-07,-3.83757e-08,5.28769e-07,-2.19561e-06,4.30997e-07,-3.83757e-08,4.30997e-07,8.41596e-07,4040.87,2847.22,-206.639,2847.22,-13215.4,2320.76,-206.639,2320.76,3138.81,10,39,264,272,277,1000
16044,1.98639e-06,5.33771e-07,-7.574e-07,2.22258e-07,-7.574e-07,-1.99702e-06,2.92819e-07,2.22258e-07,2.92819e-07,6.64042e-07,-353.446,-4078.32,1196.78,-4078.32,-13980.8,1576.72,1196.78,1576.72,348.019,10,51,53,54,284,1001
28152.2,3.4855e-06,1.06179e-06,8.94232e-07,-5.29386e-08,8.94232e-07,-3.51942e-06,3.55627e-07,-5.29386e-08,3.55627e-07,1.73889e-06,2814.61,4815.12,-285.061,4815.12,-21853.4,1914.95,-285.061,1914.95,6460.56,10,35,36,40,277,1002
9643.43,1.19395e-06,-8.30781e-08,6.49125e-07,1.31272e-07,6.49125e-07,-1.14598e-06,1.04499e-07,1.31272e-07,1.04499e-07,3.91219e-07,-3830.94,3495.29,706.848,3495.29,-9554.27,562.688,706.848,562.688,-1277.03,10,26,37,263,321,1003
29936.3,3.70641e-06,3.20553e-06,-8.01663e-07,-5.53158e-07,-8.01663e-07,-2.82202e-06,2.75652e-08,-5.53158e-07,2.75652e-08,1.09317e-06,23223.9,-4316.62,-2978.53,-4316.62,-9232.06,148.433,-2978.53,148.433,11849.7,10,21,22,55,280,1004
14061.6,1.74096e-06,7.79452e-07,-4.71776e-07,-4.625e-08,-4.71776e-07,-1.59529e-06,6.51793e-07,-4.625e-08,6.51793e-07,3.92963e-07,2489.25,-2540.34,-249.038,-2540.34,-10297.8,3509.66,-249.038,3509.66,408.158,10,44,45,53,333,1005
7795.48,9.65153e-07,0,-2.3671e-07,0,-2.3671e-07,-1.17846e-06,-4.2389e-07,0,-4.2389e-07,0,-4759.19,-1274.59,0.00108058,-1274.59,-11104.8,-2282.49,0.00108058,-2282.49,-4759.18,10,229,230,235,293,1006
9075.58,1.12364e-06,5.34607e-07,1.31494e-07,-3.97459e-08,1.31494e-07,-1.34022e-06,-4.19563e-08,-3.97459e-08,-4.19563e-08,-2.51214e-08,-476.257,708.046,-214.017,708.046,-10571.5,-225.918,-214.017,-225.918,-3490.19,10,222,244,271,273,1007
10880.5,1.34711e-06,2.20492e-07,4.83946e-07,1.59812e-07,4.83946e-07,-1.0968e-06,-5.89156e-07,1.59812e-07,-5.89156e-07,5.42215e-07,-161.97,2605.86,860.522,2605.86,-7255.1,-3172.38,860.522,-3172.38,1570.39,10,306,313,319,320,1008
7992.71,9.89573e-07,2.0472e-07,-7.0154e-07,1.70755e-08,-7.0154e-07,-6.28044e-07,3.46677e-08,1.70755e-08,3.46677e-08,2.38055e-07,354.136,-3777.52,91.9455,-3777.52,-4130,186.673,91.9455,186.673,533.624,10,178,181,182,324,1009
16208.3,2.00674e-06,8.01399e-07,4.03279e-07,-8.15703e-08,4.03279e-07,-2.09932e-06,-3.16593e-08,-8.15703e-08,-3.16593e-08,8.47453e-07,2495.98,2171.5,-439.226,2171.5,-13123.3,-170.469,-439.226,-170.469,2743.96,10,266,267,318,325,1010
14183.9,1.7561e-06,1.3335e-06,1.1387e-07,2.97574e-07,1.1387e-07,-1.23797e-06,7.46356e-07,2.97574e-07,7.46356e-07,-1.35189e-08,7511.52,613.143,1602.32,613.143,-6334.82,4018.84,1602.32,4018.84,258.371,10,33,44,190,335,1011
5130.77,6.35237e-07,0,7.4323e-08,0,7.4323e-08,-7.07093e-07,3.61193e-07,0,3.61193e-07,0,-2855.57,400.201,0.0002891,400.201,-6663,1944.89,0.0002891,1944.89,-2855.57,10,192,193,251,334,1012
20647.2,2.55631e-06,1.14733e-06,-1.65034e-07,-4.00714e-07,-1.65034e-07,-3.01833e-06,-5.90046e-07,-4.00714e-07,-5.90046e-07,-6.51584e-07,-4009.44,-888.652,-2157.71,-888.652,-26440,-3177.18,-2157.71,-3177.18,-13696,10,55,56,276,288,1013
25326.9,3.1357e-06,1.12708e-06,-6.71368e-07,-7.58395e-07,-6.71368e-07,-3.12372e-06,-9.3785e-07,-7.58395e-07,-9.3785e-07,6.91367e-07,797.561,-3615.07,-4083.68,-3615.07,-22091.4,-5049.98,-4083.68,-5049.98,-1548.61,10,43,55,143,276,1014
18157.7,2.2481e-06,1.36539e-06,1.19021e-06,1.34521e-07,1.19021e-06,-1.55317e-06,-4.33277e-07,1.34521e-07,-4.33277e-07,2.46158e-07,7587.86,6408.83,724.342,6408.83,-8127.46,-2333.03,724.342,-2333.03,1561.21,10,65,66,313,318,1015
9051.7,1.12069e-06,2.90292e-07,7.5537e-07,-3.06695e-08,7.5537e-07,-7.7452e-07,-6.25218e-08,-3.06695e-08,-6.25218e-08,2.57075e-07,645.757,4067.37,-165.145,4067.37,-5087.86,-336.655,-165.145,-336.655,466.892,10,220,265,315,330,1016
19593.4,2.42583e-06,1.18053e-06,4.10575e-07,1.45123e-07,4.10575e-07,-2.79925e-06,-5.10006e-07,1.45123e-07,-5.10006e-07,-6.98462e-07,-3001.16,2210.81,781.435,2210.81,-24430.8,-2746.2,781.435,-2746.2,-13118.9,10,55,56,64,288,1017
21559.1,2.66922e-06,1.20678e-06,7.77303e-07,1.10385e-07,7.77303e-07,-2.71427e-06,-2.29413e-07,1.10385e-07,-2.29413e-07,8.25063e-07,3741.99,4185.5,594.379,4185.5,-17371.4,-1235.3,594.379,-1235.3,1686.61,10,23,24,64,318,1018
17380,2.15181e-06,1.08551e-06,4.32005e-07,3.06749e-07,4.32005e-07,-1.93066e-06,-8.66267e-07,3.06749e-07,-8.66267e-07,2.85789e-07,3586.02,2326.19,1651.73,2326.19,-12654.9,-4664.52,1651.73,-4664.52,-720.165,10,59,65,67,282,1019
22599.7,2.79805e-06,1.22916e-06,8.13865e-07,-9.75165e-09,8.13865e-07,-2.77314e-06,-2.14132e-07,-9.75165e-09,-2.14132e-07,1.09258e-06,4795.56,4382.37,-52.5083,4382.37,-16755.3,-1153.02,-52.5083,-1153.02,4060.13,10,24,64,66,318,1020
20046.1,2.4819e-06,1.19496e-06,8.36051e-07,-1.75143e-08,8.36051e-07,-2.50027e-06,1.90529e-07,-1.75143e-08,1.90529e-07,5.35523e-07,3325.57,4501.84,-94.311,4501.84,-16571.8,1025.94,-94.311,1025.94,-225.233,10,23,24,38,325,1021
9383.79,1.1618e-06,4.63143e-07,-4.21765e-07,-9.86775e-09,-4.21765e-07,-1.15266e-06,-6.19754e-08,-9.86775e-09,-6.19754e-08,3.85592e-07,1266.43,-2271.04,-53.1338,-2271.04,-7434.08,-333.713,-53.1338,-333.713,848.845,10,224,290,291,294,1022
9551.61,1.18258e-06,3.35339e-07,-5.57271e-09,-7.07219e-08,-5.57271e-09,-1.0086e-06,-6.78212e-07,-7.07219e-08,-6.78212e-07,2.93421e-07,271.686,-30.0063,-380.81,-30.0063,-6964.93,-3651.91,-380.81,-3651.91,45.9781,10,161,260,261,286,1023
12102.1,1.49835e-06,7.853e-07,-1.9795e-07,-2.39687e-07,-1.9795e-07,-1.23708e-06,-7.44292e-07,-2.39687e-07,-7.44292e-07,-4.682e-08,2214.95,-1065.88,-1290.62,-1065.88,-8674.79,-4007.73,-1290.62,-4007.73,-2265.69,10,58,162,257,261,1024
8037.46,9.95112e-07,0,-9.40583e-08,0,-9.40583e-08,-1.38733e-06,-3.03774e-07,0,-3.03774e-07,0,-5602.68,-506.468,0.000307705,-506.468,-13072.9,-1635.71,0.000307705,-1635.71,-5602.68,10,222,229,230,287,1025
8111.66,1.0043e-06,3.37488e-07,-1.34021e-07,-1.04604e-07,-1.34021e-07,-8.33031e-07,-5.62647e-07,-1.04604e-07,-5.62647e-07,2.05416e-07,645.573,-721.65,-563.25,-721.65,-5657.23,-3029.63,-563.25,-3029.63,-65.5801,10,160,212,255,286,1026
8195.93,1.01473e-06,4.8872e-12,-1.7413e-07,1.06152e-11,-1.7413e-07,-5.89513e-07,-7.91264e-07,1.06152e-11,-7.91264e-07,-4.43978e-12,-2380.71,-937.622,0.0586427,-937.622,-5555.04,-4260.65,0.0586427,-4260.65,-2380.75,10,159,213,240,286,1027
8779.24,1.08695e-06,6.83491e-07,4.78872e-08,-8.44331e-08,4.78872e-08,-8.12529e-07,-5.2694e-07,-8.44331e-08,-5.2694e-07,2.79698e-07,4288.76,257.854,-454.639,257.854,-3766.73,-2837.36,-454.639,-2837.36,2114.5,10,160,161,167,260,1028
9064.52,1.12227e-06,3.39875e-07,-4.49845e-07,-6.84962e-08,-4.49845e-07,-8.19158e-07,-6.09317e-07,-6.84962e-08,-6.09317e-07,6.2672e-08,147.625,-2422.24,-368.824,-2422.24,-6093.33,-3280.94,-368.824,-3280.94,-1345.01,10,279,302,309,310,1029
14772,1.82891e-06,8.59513e-07,5.84029e-07,1.19305e-08,5.84029e-07,-1.48071e-06,-8.32268e-07,1.19305e-08,-8.32268e-07,2.52311e-07,3138.38,3144.77,64.2402,3144.77,-9462.85,-4481.44,64.2402,-4481.44,-131.173,10,282,305,306,312,1030
8662.49,1.0725e-06,4.13082e-07,2.01881e-07,1.29178e-07,2.01881e-07,-7.78709e-07,-6.21492e-07,1.29178e-07,-6.21492e-07,2.55031e-07,1777.65,1087.05,695.571,1087.05,-4639.7,-3346.49,695.571,-3346.49,926.606,10,165,167,168,285,1031
17736.4,2.19594e-06,8.32063e-07,1.26823e-06,-2.07422e-08,1.26823e-06,-1.68946e-06,1.80276e-07,-2.07422e-08,1.80276e-07,6.47055e-07,3630.82,6828.95,-111.691,6828.95,-9946.63,970.721,-111.691,970.721,2634.63,10,38,263,325,326,1032
18260.7,2.26084e-06,1.3281e-06,1.21374e-06,1.79639e-07,1.21374e-06,-1.56226e-06,-4.52119e-07,1.79639e-07,-4.52119e-07,2.07685e-07,7044.36,6535.55,967.285,6535.55,-8519.13,-2434.48,967.285,-2434.48,1011.34,10,61,65,66,313,1033
7616.89,9.43043e-07,0,5.27653e-07,0,5.27653e-07,-7.16267e-07,-4.66441e-07,0,-4.66441e-07,0,-2892.62,2841.21,-0.00265051,2841.21,-6749.46,-2511.6,-0.00265051,-2511.6,-2892.62,10,184,227,233,320,1034
8896.07,1.10142e-06,1.24647e-07,6.00894e-07,-1.16575e-07,6.00894e-07,-7.04603e-07,-5.6255e-07,-1.16575e-07,-5.6255e-07,8.47244e-08,-1328.8,3235.58,-627.716,3235.58,-5794.01,-3029.12,-627.716,-3029.12,-1543.77,10,163,184,185,320,1035
10152.3,1.25695e-06,5.52387e-07,-2.85793e-07,-5.45808e-09,-2.85793e-07,-1.09141e-06,-6.21945e-07,-5.45808e-09,-6.21945e-07,8.08174e-08,1123.95,-1538.88,-29.3887,-1538.88,-7727.25,-3348.93,-29.3887,-3348.93,-1415.27,10,302,303,310,327,1036
7409.58,9.17375e-07,0,-4.9949e-07,0,-4.9949e-07,-6.9291e-07,-4.70798e-07,0,-4.70798e-07,0,-2798.29,-2689.56,0.00253249,-2689.56,-6529.36,-2535.07,0.00253249,-2535.07,-2798.3,10,231,236,237,299,1037
16012,1.98244e-06,8.73147e-07,-5.31113e-07,-2.74526e-07,-5.31113e-07,-1.83242e-06,-6.8066e-07,-2.74526e-07,-6.8066e-07,4.63935e-07,2701.11,-2859.84,-1478.22,-2859.84,-11867.4,-3665.09,-1478.22,-3665.09,497.662,10,281,293,311,328,1038
12949.1,1.60322e-06,-3.53342e-07,-9.00089e-07,1.29987e-07,-9.00089e-07,-9.13581e-07,-6.30068e-07,1.29987e-07,-6.30068e-07,7.3609e-07,-4046.38,-4846.64,699.936,-4846.64,-7063.06,-3392.67,699.936,-3392.67,1819.79,10,13,146,298,317,1039
7786.19,9.64003e-07,0,-6.52043e-07,0,-6.52043e-07,-6.3441e-07,-3.71024e-07,0,-3.71024e-07,0,-2562.04,-3511,0.00260533,-3511,-5978.11,-1997.82,0.00260533,-1997.82,-2562.05,10,217,218,219,232,1040
14243.3,1.76346e-06,5.68574e-07,2.11543e-07,-9.26956e-09,2.11543e-07,-2.03454e-06,-2.04124e-07,-9.26956e-09,-2.04124e-07,5.5362e-07,-622.939,1139.08,-49.9131,1139.08,-14639.7,-1099.13,-49.9131,-1099.13,-703.464,10,266,267,268,289,1041
7622.82,9.43776e-07,0,-5.0246e-07,0,-5.0246e-07,-1.00287e-06,-2.83405e-07,0,-2.83405e-07,0,-4050.06,-2705.56,0.00153354,-2705.56,-9450.16,-1526.03,0.00153354,-1526.03,-4050.07,10,226,231,232,292,1042
9751.85,1.20737e-06,4.52711e-07,-5.15167e-07,-6.19387e-08,-5.15167e-07,-1.04384e-06,-3.51399e-07,-6.19387e-08,-3.51399e-07,3.54076e-07,1480.34,-2773.97,-333.515,-2773.97,-6578.02,-1892.15,-333.515,-1892.15,949.228,10,231,290,292,293,1043
9413.71,1.16551e-06,6.97824e-08,4.94148e-07,9.28612e-08,4.94148e-07,-7.59905e-07,-7.21604e-07,9.28612e-08,-7.21604e-07,1.23524e-07,-1912.44,2660.8,500.018,2660.8,-6380.01,-3885.56,500.018,-3885.56,-1623.06,10,164,165,186,238,1044
8398.32,1.03979e-06,2.2688e-07,-6.47102e-07,-7.48046e-08,-6.47102e-07,-6.93888e-07,-3.1967e-07,-7.48046e-08,-3.1967e-07,2.32527e-07,274.713,-3484.4,-402.792,-3484.4,-4683.28,-1721.3,-402.792,-1721.3,305.112,10,181,218,219,324,1045
7513,9.3018e-07,0,-5.33249e-07,0,-5.33249e-07,-5.02693e-07,-5.2947e-07,0,-5.2947e-07,0,-2030.11,-2871.34,0.00304058,-2871.34,-4736.93,-2850.99,0.00304058,-2850.99,-2030.11,10,216,217,237,300,1046
7220.98,8.94025e-07,0,-6.62294e-07,0,-6.62294e-07,-6.44577e-07,-1.49449e-07,0,-1.49449e-07,0,-2603.1,-3566.2,0.00106593,-3566.2,-6073.91,-804.727,0.00106593,-804.727,-2603.1,10,218,226,232,324,1047
8371.01,1.03641e-06,2.02866e-07,-7.23535e-07,5.28462e-09,-7.23535e-07,-7.68383e-07,-1.40429e-07,5.28462e-09,-1.40429e-07,-6.54234e-10,-1194.1,-3895.96,28.4569,-3895.96,-6423.92,-756.158,28.4569,-756.158,-2289.99,10,177,181,218,324,1048
6836.91,8.46475e-07,1.12913e-07,-4.2607e-07,-2.07305e-07,-4.2607e-07,-5.96358e-07,-2.41487e-07,-2.07305e-07,-2.41487e-07,3.79879e-07,189.742,-2294.22,-1116.26,-2294.22,-3629.42,-1300.32,-1116.26,-1300.32,1627.25,10,13,180,219,298,1049
9258.79,1.14633e-06,2.8372e-07,-5.90296e-07,-1.26138e-07,-5.90296e-07,-9.18574e-07,-1.24061e-07,-1.26138e-07,-1.24061e-07,5.38877e-07,1140.11,-3178.52,-679.206,-3178.52,-5333.78,-668.021,-679.206,-668.021,2514.04,10,0,13,180,317,1050
7539.43,9.33452e-07,0,5.2206e-07,0,5.2206e-07,-8.88483e-07,-3.43247e-07,0,-3.43247e-07,0,-3588.11,2811.09,-0.0019298,2811.09,-8372.26,-1848.25,-0.0019298,-1848.25,-3588.11,10,221,227,228,316,1051
8556.68,1.0594e-06,-6.74314e-09,5.38456e-07,8.08332e-08,5.38456e-07,-6.27684e-07,-3.10092e-07,8.08332e-08,-3.10092e-07,7.11465e-07,274.795,2899.38,435.254,2899.38,-3068.74,-1669.73,435.254,-1669.73,4142.07,10,25,63,189,322,1052
7504.51,9.2913e-07,-5.33886e-08,4.08894e-07,-2.98904e-07,4.08894e-07,-7.87727e-07,-1.63842e-07,-2.98904e-07,-1.63842e-07,4.08779e-07,-2033.46,2201.74,-1609.48,2201.74,-5987.59,-882.227,-1609.48,-882.227,455.134,10,25,26,175,329,1053
8227.69,1.01867e-06,3.92414e-07,5.1265e-07,-4.28402e-08,5.1265e-07,-8.29865e-07,-6.8602e-08,-4.28402e-08,-6.8602e-08,4.18652e-07,2037.07,2760.42,-230.679,2760.42,-4544.43,-369.394,-230.679,-369.394,2178.35,10,25,175,315,322,1054
7200.01,8.91428e-07,0,-3.18621e-07,0,-3.18621e-07,-1.14605e-06,-2.38018e-07,0,-2.38018e-07,0,-4628.29,-1715.65,0.000816714,-1715.65,-10799.3,-1281.64,0.000816714,-1281.64,-4628.29,10,224,230,231,290,1055
26472,3.27747e-06,4.67322e-07,-1.31642e-06,-4.75056e-07,-1.31642e-06,-3.603e-06,-5.39427e-07,-4.75056e-07,-5.39427e-07,6.67027e-07,-7453.27,-7088.47,-2558,-7088.47,-29370.4,-2904.62,-2558,-2904.62,-6377.92,10,42,43,143,276,1056
9983.59,1.23606e-06,4.34061e-07,4.50118e-07,1.05873e-07,4.50118e-07,-8.01539e-07,-6.9783e-07,1.05873e-07,-6.9783e-07,2.52485e-07,1872.85,2423.71,570.083,2423.71,-4780.39,-3757.54,570.083,-3757.54,895.13,10,163,304,306,308,1057
14223.7,1.76103e-06,5.76129e-07,-4.95948e-07,-3.4957e-07,-4.95948e-07,-1.40271e-06,-6.75822e-07,-3.4957e-07,-6.75822e-07,8.38176e-07,3149.03,-2670.49,-1882.3,-2670.49,-7506.26,-3639.05,-1882.3,-3639.05,4560.05,10,141,142,145,311,1058
6631.27,8.21013e-07,0,-1.95695e-07,0,-1.95695e-07,-1.17381e-06,8.92938e-08,0,8.92938e-08,0,-4740.39,-1053.74,-0.000188185,-1053.74,-11060.9,480.813,-0.000188185,480.813,-4740.39,10,225,247,248,294,1059
11934.4,1.4776e-06,6.10423e-07,5.38591e-07,2.26365e-08,5.38591e-07,-1.36097e-06,-5.05663e-07,2.26365e-08,-5.05663e-07,2.23674e-07,1159.1,2900.1,121.888,2900.1,-9456.13,-2722.8,121.888,-2722.8,-923.394,10,289,313,316,319,1060
9551.79,1.1826e-06,5.13134e-07,1.53197e-07,2.39201e-08,1.53197e-07,-1.28693e-06,1.07532e-07,2.39201e-08,1.07532e-07,3.93953e-07,1229.03,824.908,128.801,824.908,-8463.65,579.017,128.801,579.017,587.282,10,244,270,271,273,1061
6211.22,7.69007e-07,2.44349e-07,1.46765e-07,-9.57323e-08,1.46765e-07,-7.43581e-07,3.6328e-07,-9.57323e-08,3.6328e-07,8.28794e-08,-365.702,790.273,-515.481,790.273,-5685.33,1956.12,-515.481,1956.12,-1235.15,10,193,197,334,337,1062
27447.8,3.3983e-06,1.48248e-06,5.42827e-07,-2.01763e-07,5.42827e-07,-2.84138e-06,-1.44136e-06,-2.01763e-07,-1.44136e-06,1.49392e-06,8527.77,2922.93,-1086.41,2922.93,-14754.5,-7761.19,-1086.41,-7761.19,8589.37,10,56,57,67,314,1063
7409.58,9.17375e-07,0,-4.9949e-07,0,-4.9949e-07,-6.9291e-07,-4.70798e-07,0,-4.70798e-07,0,-2798.29,-2689.56,0.00253249,-2689.56,-6529.36,-2535.07,0.00253249,-2535.07,-2798.3,10,231,232,237,299,1064
7806.67,9.66539e-07,0,-2.7009e-07,0,-2.7009e-07,-8.2419e-07,-6.33459e-07,0,-6.33459e-07,0,-3328.47,-1454.33,0.00184252,-1454.33,-7766.42,-3410.93,0.00184252,-3410.93,-3328.46,10,235,236,240,310,1065
9445.81,1.16948e-06,2.53234e-07,-4.9579e-07,-4.99323e-08,-4.9579e-07,-1.17365e-06,1.01378e-07,-4.99323e-08,1.01378e-07,4.19881e-07,-657.836,-2669.64,-268.867,-2669.64,-8341.06,545.88,-268.867,545.88,239.497,10,49,50,51,297,1066
8150.42,1.0091e-06,0,-2.26837e-07,8.73389e-08,-2.26837e-07,-7.55642e-07,-6.74537e-07,8.73389e-08,-6.74537e-07,1.88423e-07,-2290.7,-1221.43,470.288,-1221.43,-6359.55,-3632.12,470.288,-3632.12,-1276.11,10,211,240,241,302,1067
7200.01,8.91428e-07,0,-3.18621e-07,0,-3.18621e-07,-1.14605e-06,-2.38018e-07,0,-2.38018e-07,0,-4628.29,-1715.65,0.000816714,-1715.65,-10799.3,-1281.64,0.000816714,-1281.64,-4628.29,10,224,226,231,290,1068
26998.2,3.34263e-06,1.34274e-06,4.66095e-07,-8.45634e-08,4.66095e-07,-3.29347e-06,5.78604e-07,-8.45634e-08,5.78604e-07,1.73412e-06,6355.33,2509.76,-455.343,2509.76,-18608.9,3115.56,-455.343,3115.56,8462.76,10,34,35,39,272,1069
16102.1,1.99359e-06,-1.58859e-07,-1.30814e-06,-2.11854e-08,-1.30814e-06,-1.72241e-06,1.08098e-08,-2.11854e-08,1.08098e-08,4.64201e-07,-6578.18,-7043.83,-114.074,-7043.83,-14997.3,58.2101,-114.074,58.2101,-3223.24,10,0,41,50,317,1070
10768.8,1.33329e-06,7.05199e-07,-7.66978e-07,3.24984e-07,-7.66978e-07,-3.27777e-07,-6.09546e-07,3.24984e-07,-6.09546e-07,2.45122e-07,6311.33,-4129.88,1749.91,-4129.88,749.148,-3282.17,1749.91,-3282.17,3833.99,10,11,140,209,279,1071
7278.86,9.01191e-07,0,-6.03173e-07,0,-6.03173e-07,-7.37131e-07,2.53318e-07,0,2.53318e-07,0,-2976.88,-3247.86,-0.00164548,-3247.86,-6946.06,1364.02,-0.00164548,1364.02,-2976.88,10,201,202,208,249,1072
8635.92,1.06921e-06,3.17721e-07,-6.19677e-07,-7.62314e-08,-6.19677e-07,-7.76584e-07,-3.14292e-07,-7.62314e-08,-3.14292e-07,2.26985e-07,774.371,-3336.72,-410.475,-3336.72,-5118.05,-1692.34,-410.475,-1692.34,285.79,10,219,232,298,324,1073
6122.58,7.58033e-07,0,2.99574e-07,1.47983e-08,2.99574e-07,-8.2168e-07,2.92687e-07,1.47983e-08,2.92687e-07,9.86915e-08,-2919.76,1613.09,79.6839,1613.09,-7344.2,1576.01,79.6839,1576.01,-2388.35,10,250,251,269,337,1074
7063.99,8.74589e-07,2.34461e-07,-4.8412e-07,-3.00238e-08,-4.8412e-07,-6.18917e-07,2.11627e-07,-3.00238e-08,2.11627e-07,3.86277e-07,1269.83,-2606.8,-161.667,-2606.8,-3325.28,1139.53,-161.667,1139.53,2087.3,10,46,47,49,297,1075
14384.9,1.78099e-06,6.38066e-07,-4.67682e-07,-2.78124e-07,-4.67682e-07,-1.45446e-06,-7.64916e-07,-2.78124e-07,-7.64916e-07,6.91485e-07,2931.29,-2518.29,-1497.59,-2518.29,-8336.14,-4118.78,-1497.59,-4118.78,3218.92,10,141,144,145,311,1076
7220.98,8.94025e-07,0,-6.62294e-07,0,-6.62294e-07,-6.44577e-07,-1.49449e-07,0,-1.49449e-07,0,-2603.1,-3566.2,0.00106593,-3566.2,-6073.91,-804.727,0.00106593,-804.727,-2603.1,10,177,218,226,324,1077
7752.13,9.59787e-07,2.92376e-07,5.60281e-07,-8.68713e-08,5.60281e-07,-7.31038e-07,2.18452e-07,-8.68713e-08,2.18452e-07,2.0446e-07,628.51,3016.9,-467.768,3016.9,-4882.19,1176.28,-467.768,1176.28,155.114,10,30,199,321,337,1078
6083.39,7.53181e-07,0,4.24429e-07,0,4.24429e-07,-7.30072e-07,2.60102e-07,0,2.60102e-07,0,-2948.37,2285.39,0.00118887,2285.39,-6879.53,1400.55,0.00118887,1400.55,-2948.37,10,194,195,199,250,1079
6331.83,7.83939e-07,0,-4.67991e-07,0,-4.67991e-07,-7.27831e-07,2.55588e-07,0,2.55588e-07,0,-2939.32,-2519.95,-0.00128814,-2519.95,-6858.42,1376.25,-0.00128814,1376.25,-2939.32,10,202,203,207,253,1080
12256.8,1.51751e-06,7.44064e-07,5.76524e-07,-2.48458e-07,5.76524e-07,-1.37504e-06,3.09274e-07,-2.48458e-07,3.09274e-07,2.71169e-07,2553.43,3104.36,-1337.85,3104.36,-8857.13,1665.32,-1337.85,1665.32,7.07078,10,31,32,197,336,1081
5781.79,7.15839e-07,0,2.9819e-07,0,2.9819e-07,-8.26993e-07,2.59672e-07,0,2.59672e-07,0,-3339.78,1605.64,0.000833881,1605.64,-7792.83,1398.24,0.000833881,1398.24,-3339.78,10,193,194,251,337,1082
5994.54,7.4218e-07,3.32199e-07,8.07647e-08,-7.51326e-08,8.07647e-08,-7.29483e-07,2.97696e-07,-7.51326e-08,2.97696e-07,1.04053e-07,604.555,434.886,-404.56,434.886,-5112.19,1602.98,-404.56,1602.98,-623.924,10,191,197,198,334,1083
8345.2,1.03322e-06,3.66072e-07,-6.70728e-07,7.67888e-08,-6.70728e-07,-5.78957e-07,2.64858e-07,7.67888e-08,2.64858e-07,2.86464e-07,2268.29,-3611.61,413.478,-3611.61,-2820.32,1426.16,413.478,1426.16,1839.63,10,46,47,207,297,1084
6863.15,8.49723e-07,2.09912e-07,-4.81062e-07,3.58935e-08,-4.81062e-07,-7.28979e-07,2.56482e-07,3.58935e-08,2.56482e-07,1.14637e-09,-961.312,-2590.33,193.271,-2590.33,-6016.89,1381.06,193.271,1381.06,-2085.44,10,202,207,208,249,1085
5743.14,7.11055e-07,0,-2.53161e-07,0,-2.53161e-07,-8.19996e-07,3.01625e-07,0,3.01625e-07,0,-3311.52,-1363.18,-0.000822336,-1363.18,-7726.9,1624.14,-0.000822336,1624.14,-3311.52,10,203,252,253,331,1086
11016.5,1.36394e-06,6.24953e-07,-3.6751e-07,7.06875e-08,-3.6751e-07,-1.34975e-06,4.6295e-07,7.06875e-08,4.6295e-07,8.26048e-08,771.658,-1978.9,380.624,-1978.9,-9861.37,2492.81,380.624,2492.81,-2148.69,10,44,190,205,333,1087
11699,1.44844e-06,6.45822e-07,3.83415e-07,-8.74318e-08,3.83415e-07,-1.47515e-06,4.43552e-07,-8.74318e-08,4.43552e-07,1.26074e-07,637.424,2064.54,-470.785,2064.54,-10783.2,2388.36,-470.785,2388.36,-2161.22,10,32,190,197,336,1088
6571.12,8.13566e-07,2.57841e-07,1.33932e-07,-1.31624e-07,1.33932e-07,-7.32549e-07,4.00229e-07,-1.31624e-07,4.00229e-07,1.7162e-07,164.36,721.174,-708.743,721.174,-5168.51,2155.08,-708.743,2155.08,-299.903,10,193,197,198,334,1089
6679.96,8.27042e-07,2.39682e-07,5.07826e-07,1.18916e-07,5.07826e-07,-6.17736e-07,-1.10976e-08,1.18916e-07,-1.10976e-08,2.24698e-07,671.274,2734.45,640.319,2734.45,-3945.6,-59.7558,640.319,-59.7558,590.587,10,174,175,176,315,1090
20954.7,2.59438e-06,8.93888e-07,-8.19581e-07,2.14114e-07,-8.19581e-07,-2.57278e-06,3.7208e-07,2.14114e-07,3.7208e-07,1.04815e-06,2265.96,-4413.14,1152.92,-4413.14,-16400.7,2003.52,1152.92,2003.52,3096.61,10,42,52,54,278,1091
10194,1.26211e-06,6.6701e-07,-3.38387e-07,1.62772e-07,-3.38387e-07,-1.23889e-06,2.65059e-07,1.62772e-07,2.65059e-07,1.89445e-07,2047.15,-1822.09,876.465,-1822.09,-8215.38,1427.24,876.465,1427.24,-524.353,10,297,331,332,333,1092
5567.84,6.8935e-07,1.68101e-08,1.50853e-07,5.34927e-08,1.50853e-07,-7.2125e-07,3.81174e-07,5.34927e-08,3.81174e-07,3.2388e-08,-2623.54,812.284,288.038,812.284,-6597.72,2052.48,288.038,2052.48,-2539.66,10,192,193,198,334,1093
6974.25,8.63478e-07,3.60163e-07,-3.33106e-08,2.05887e-08,-3.33106e-08,-9.44372e-07,2.93488e-07,2.05887e-08,2.93488e-07,7.96784e-08,-98.1965,-179.365,110.862,-179.365,-7122.62,1580.32,110.862,1580.32,-1608.5,10,190,206,331,334,1094
5841.12,7.23186e-07,3.08203e-07,-7.39972e-09,-1.9657e-08,-7.39972e-09,-6.50308e-07,3.88467e-07,-1.9657e-08,3.88467e-07,1.23725e-08,327.934,-39.8447,-105.846,-39.8447,-4833.28,2091.75,-105.846,2091.75,-1265,10,191,192,206,334,1095
5253.09,6.50383e-07,-2.47214e-07,4.23188e-07,-1.04517e-08,4.23188e-07,-4.55897e-07,-4.45112e-08,-1.04517e-08,-4.45112e-08,2.61264e-07,-3115.54,2278.7,-56.278,2278.7,-4239.22,-239.676,-56.278,-239.676,-377.581,10,27,28,29,330,1096
8309.92,1.02885e-06,1.67951e-07,8.11192e-07,7.99844e-09,8.11192e-07,-4.7272e-07,2.92713e-08,7.99844e-09,2.92713e-08,1.59026e-07,315.767,4367.96,43.0688,4367.96,-3134.01,157.615,43.0688,157.615,267.705,10,28,171,176,330,1097
6526.46,8.08036e-07,0,4.69247e-07,0,4.69247e-07,-8.98939e-07,-1.1654e-08,0,-1.1654e-08,0,-3630.33,2526.72,-5.88925e-05,2526.72,-8470.79,-62.7521,-5.88925e-05,-62.7521,-3630.34,10,221,242,243,265,1098
8735,1.08147e-06,1.09291e-07,5.11406e-08,-9.50115e-08,5.11406e-08,-8.31029e-07,-7.30236e-07,-9.50115e-08,-7.30236e-07,2.1685e-07,-1450.49,275.371,-511.602,275.371,-6513.76,-3932.04,-511.602,-3932.04,-871.321,10,159,166,260,285,1099
8381.54,1.03771e-06,-4.04611e-08,-7.34592e-08,3.42054e-08,-7.34592e-08,-1.29666e-06,5.56588e-08,3.42054e-08,5.56588e-08,4.31623e-07,-3874.68,-395.55,184.184,-395.55,-10638.8,299.703,184.184,299.703,-1332.68,10,225,244,270,273,1100
8196.04,1.01475e-06,0,-1.74136e-07,-1.35088e-12,-1.74136e-07,-5.8952e-07,-7.91275e-07,-1.35088e-12,-7.91275e-07,-1.22767e-11,-2380.81,-937.656,-0.00579009,-937.656,-5555.16,-4260.72,-0.00579009,-4260.72,-2380.87,10,159,239,240,286,1101
9069.19,1.12285e-06,6.57903e-07,-1.03485e-07,-1.50489e-07,-1.03485e-07,-1.04894e-06,3.98897e-07,-1.50489e-07,3.98897e-07,7.72155e-08,2275.2,-557.226,-810.326,-557.226,-6915.49,2147.91,-810.326,2147.91,-851.583,10,252,333,334,335,1102
6692.28,8.28567e-07,0,-5.50924e-07,0,-5.50924e-07,-7.62937e-07,1.31721e-07,0,1.31721e-07,0,-3081.09,-2966.52,-0.000781504,-2966.52,-7189.23,709.266,-0.000781504,709.266,-3081.1,10,201,223,249,295,1103
10897.5,1.34921e-06,7.87583e-07,-4.15996e-07,4.28961e-08,-4.15996e-07,-1.24127e-06,2.8946e-07,4.28961e-08,2.8946e-07,2.55445e-07,3440.22,-2239.98,230.979,-2239.98,-7484.38,1558.63,230.979,1558.63,574.86,10,45,297,331,333,1104
9759.32,1.2083e-06,4.61367e-07,-7.40432e-07,1.46303e-08,-7.40432e-07,-9.11248e-07,-9.83235e-08,1.46303e-08,-9.83235e-08,2.19512e-07,1553.94,-3986.94,78.7789,-3986.94,-5837.07,-529.434,78.7789,-529.434,251.642,10,182,223,296,324,1105
6692.28,8.28567e-07,0,-5.50924e-07,0,-5.50924e-07,-7.62937e-07,1.31721e-07,0,1.31721e-07,0,-3081.09,-2966.52,-0.000781504,-2966.52,-7189.23,709.266,-0.000781504,709.266,-3081.1,10,223,224,249,295,1106
5836.97,7.22672e-07,0,2.70247e-07,0,2.70247e-07,-9.34245e-07,1.66493e-07,0,1.66493e-07,0,-3772.91,1455.18,0.000484553,1455.18,-8803.47,896.501,0.000484553,896.501,-3772.91,10,243,245,246,269,1107
9490.7,1.17504e-06,0,4.15546e-07,5.29396e-23,4.15546e-07,-7.42935e-07,-8.23937e-07,5.29396e-23,-8.23937e-07,0,-3000.32,2237.56,-0.00368722,2237.56,-7000.76,-4436.59,-0.00368722,-4436.59,-3000.32,10,165,186,187,238,1108
11497.5,1.4235e-06,9.59895e-09,-2.04071e-07,6.11715e-08,-2.04071e-07,-1.09977e-06,-9.3672e-07,6.11715e-08,-9.3672e-07,3.86471e-07,-2790.18,-1098.84,329.388,-1098.84,-8763.71,-5043.87,329.388,-5043.87,-760.855,10,159,212,213,286,1109
6537.91,8.09456e-07,5.63571e-07,4.40349e-07,-1.5592e-07,4.40349e-07,-4.75889e-07,7.35097e-09,-1.5592e-07,7.35097e-09,1.39066e-07,3950.32,2371.11,-839.568,2371.11,-1646.77,39.5827,-839.568,39.5827,1664.53,10,27,28,176,330,1110
5836.97,7.22672e-07,0,2.70247e-07,0,2.70247e-07,-9.34245e-07,1.66493e-07,0,1.66493e-07,0,-3772.91,1455.18,0.000484553,1455.18,-8803.47,896.501,0.000484553,896.501,-3772.91,10,243,244,246,269,1111
6833.51,8.46053e-07,1.93851e-07,5.54982e-07,-1.16934e-08,5.54982e-07,-6.32555e-07,1.0744e-07,-1.16934e-08,1.0744e-07,1.5387e-07,-106.478,2988.37,-62.964,2988.37,-4556.37,578.523,-62.964,578.523,-321.765,10,28,29,245,330,1112
11704.1,1.44907e-06,5.11943e-07,7.08044e-07,-6.68172e-08,7.08044e-07,-1.30638e-06,3.61844e-07,-6.68172e-08,3.61844e-07,1.81287e-07,280.397,3812.55,-359.785,3812.55,-9510.6,1948.39,-359.785,1948.39,-1500.06,10,30,31,321,337,1113
6708.58,8.30585e-07,7.86121e-08,5.83289e-07,-1.42831e-07,5.83289e-07,-5.98498e-07,9.34331e-08,-1.42831e-07,9.34331e-08,5.67304e-08,-1447.14,3140.79,-769.089,3140.79,-5093.13,503.102,-769.089,503.102,-1564.97,10,28,29,196,245,1114
7920.98,9.80692e-07,-1.05312e-10,-6.54898e-07,-3.73597e-09,-6.54898e-07,-6.37216e-07,-3.12292e-07,-3.73597e-09,-3.12292e-07,2.10703e-07,-1723.45,-3526.37,-20.1146,-3526.37,-5154.06,-1681.57,-20.1146,-1681.57,-588.332,10,218,219,232,324,1115
14701.1,1.82013e-06,8.21048e-07,-5.54502e-07,-1.76697e-08,-5.54502e-07,-1.81024e-06,4.51183e-07,-1.76697e-08,4.51183e-07,3.5813e-07,1872.48,-2985.79,-95.144,-2985.79,-12296,2429.45,-95.144,2429.45,-620.161,10,45,53,297,333,1116
7146.68,8.84826e-07,3.1391e-07,2.20466e-09,1.15834e-08,2.20466e-09,-9.57432e-07,3.31575e-07,1.15834e-08,3.31575e-07,1.46306e-07,-317.706,11.8715,62.3721,11.8715,-7163.4,1785.41,62.3721,1785.41,-1220.19,10,190,191,206,334,1117
23537.5,2.91416e-06,1.49557e-06,4.90399e-07,-1.9107e-07,4.90399e-07,-3.19015e-06,-1.30453e-08,-1.9107e-07,-1.30453e-08,4.97797e-07,3219.84,2640.61,-1028.84,2640.61,-22011,-70.2326,-1028.84,-70.2326,-2152.79,10,22,280,288,318,1118
22254,2.75526e-06,1.21552e-06,3.87841e-07,6.40568e-07,3.87841e-07,-2.79068e-06,-6.44763e-07,6.40568e-07,-6.44763e-07,6.6643e-07,2875.16,2088.39,3449.22,2088.39,-18696.7,-3471.8,3449.22,-3471.8,-81.4695,10,22,55,64,288,1119
18948.7,2.34602e-06,9.53622e-07,-4.56974e-07,-1.00159e-07,-4.56974e-07,-2.65021e-06,-7.98427e-07,-1.00159e-07,-7.98427e-07,-5.76673e-07,-4045.63,-2460.65,-539.323,-2460.65,-23451,-4299.23,-539.323,-4299.23,-12285.7,10,55,56,143,276,1120
27956,3.46122e-06,1.59251e-06,-8.54245e-07,1.13865e-07,-8.54245e-07,-2.70879e-06,-1.48232e-06,1.13865e-07,-1.48232e-06,1.50566e-06,10147.4,-4599.8,613.106,-4599.8,-13013.4,-7981.76,613.106,-7981.76,9679.74,10,56,57,145,314,1121
14610,1.80885e-06,6.97844e-07,-5.38875e-07,-1.93672e-07,-5.38875e-07,-1.53822e-06,-7.01976e-07,-1.93672e-07,-7.01976e-07,6.52157e-07,2997.48,-2901.64,-1042.85,-2901.64,-9042.86,-3779.87,-1042.85,-3779.87,2751.47,10,140,141,144,311,1122
7470.03,9.2486e-07,2.72793e-07,-2.3235e-07,1.06318e-08,-2.3235e-07,-1.0164e-06,2.09682e-07,1.06318e-08,2.09682e-07,2.47771e-07,-533.512,-1251.12,57.2484,-1251.12,-7475.3,1129.06,57.2484,1129.06,-668.247,10,49,50,182,296,1123
17420.5,2.15682e-06,-1.757e-07,-1.29068e-06,1.12695e-07,-1.29068e-06,-1.70512e-06,-3.56484e-07,1.12695e-07,-3.56484e-07,8.74934e-07,-5008.34,-6949.8,606.82,-6949.8,-13243.7,-1919.53,606.82,-1919.53,648.922,10,0,41,146,317,1124
7255.68,8.9832e-07,0,-7.51575e-08,0,-7.51575e-08,-1.33478e-06,-7.55374e-08,0,-7.55374e-08,0,-5390.47,-404.695,6.11393e-05,-404.695,-12577.8,-406.74,6.11393e-05,-406.74,-5390.47,10,222,225,244,273,1125
13825.2,1.71169e-06,-5.12467e-08,-9.60136e-07,5.16464e-08,-9.60136e-07,-1.61862e-06,2.29958e-07,5.16464e-08,2.29958e-07,5.13231e-07,-4947,-5169.97,278.099,-5169.97,-13386.7,1238.24,278.099,1238.24,-1907.5,10,41,50,52,317,1126
17292.7,2.14101e-06,1.2081e-06,1.08265e-06,-7.989e-08,1.08265e-06,-1.70391e-06,2.70766e-08,-7.989e-08,2.70766e-08,3.9721e-07,6106.9,5829.68,-430.177,5829.68,-9573.15,145.798,-430.177,145.798,1740.58,10,37,38,40,263,1127
5770.59,7.14454e-07,2.88765e-07,-3.48621e-08,-6.03313e-09,-3.48621e-08,-6.52282e-07,3.83018e-07,-6.03313e-09,3.83018e-07,1.93877e-08,165.131,-187.719,-32.4861,-187.719,-4902.05,2062.4,-32.4861,2062.4,-1285.36,10,191,192,198,334,1128
9860.23,1.22079e-06,2.2744e-07,-5.49365e-07,-2.56106e-08,-5.49365e-07,-1.18325e-06,2.08938e-07,-2.56106e-08,2.08938e-07,4.28945e-07,-903.038,-2958.12,-137.903,-2958.12,-8499.04,1125.05,-137.903,1125.05,181.987,10,46,49,51,297,1129
7016.11,8.68662e-07,2.49955e-07,5.38479e-07,-1.69572e-07,5.38479e-07,-6.104e-07,9.43331e-08,-1.69572e-07,9.43331e-08,2.19518e-07,776.779,2899.5,-913.081,2899.5,-3855.91,507.947,-913.081,507.947,612.888,10,29,199,200,245,1130
12873,1.5938e-06,-3.7281e-07,1.22176e-06,-1.01952e-07,1.22176e-06,-8.57645e-07,4.11225e-08,-1.01952e-07,4.11225e-08,3.97073e-07,-5373.04,6578.74,-548.976,6578.74,-7983.7,221.43,-548.976,221.43,-1227.52,10,26,37,38,263,1131
15523.7,1.92198e-06,-1.33955e-07,1.56989e-06,-3.04891e-07,1.56989e-06,-4.98183e-07,4.27932e-08,-3.04891e-07,4.27932e-08,4.14682e-07,-1599.5,8453.26,-1641.72,8453.26,-3560.75,230.429,-1641.72,230.429,1354.69,10,25,26,38,326,1132
10136.2,1.25495e-06,2.38901e-07,6.40338e-07,9.06806e-08,6.40338e-07,-1.14561e-06,8.35596e-08,9.06806e-08,8.35596e-08,4.57773e-07,-526.65,3447.98,488.28,3447.98,-7981.74,449.937,488.28,449.937,651.89,10,27,30,37,321,1133
11842.1,1.46617e-06,3.00598e-07,9.39625e-07,7.21941e-08,9.39625e-07,-1.07769e-06,-2.70235e-07,7.21941e-08,-2.70235e-07,3.38461e-07,-152.825,5059.53,388.738,5059.53,-7574.39,-1455.11,388.738,-1455.11,51.0559,10,25,315,322,326,1134
7554.18,9.35278e-07,0,2.32977e-07,0,2.32977e-07,-1.34276e-06,-2.78317e-08,0,-2.78317e-08,0,-5422.71,1254.49,-6.98293e-05,1254.49,-12653,-149.863,-6.98293e-05,-149.863,-5422.71,10,221,222,244,271,1135
19261.4,2.38474e-06,1.44991e-07,1.30489e-06,3.33654e-08,1.30489e-06,-2.28247e-06,4.20637e-07,3.33654e-08,4.20637e-07,5.8475e-07,-5489.95,7026.33,179.656,7026.33,-18560.9,2264.98,179.656,2264.98,-3122.01,10,24,25,38,326,1136
9400.81,1.16391e-06,4.82238e-07,2.08934e-07,4.34559e-08,2.08934e-07,-8.24508e-07,-6.87164e-07,4.34559e-08,-6.87164e-07,2.91619e-07,2392.1,1125.03,233.992,1125.03,-4644.23,-3700.11,233.992,-3700.11,1365.7,10,167,168,285,305,1137
50179.4,6.21272e-06,1.08256e-06,-1.26753e-06,7.71757e-07,-1.26753e-06,-1.80675e-06,-4.46753e-06,7.71757e-07,-4.46753e-06,3.39303e-06,16606.9,-6825.12,4155.66,-6825.12,1048.86,-24055.7,4155.66,-24055.7,29048,10,8,58,162,257,1138
13074.5,1.61875e-06,7.57739e-07,8.08539e-07,-4.90306e-07,8.08539e-07,-1.23577e-07,-9.28806e-07,-4.90306e-07,-9.28806e-07,5.23982e-07,8757.23,4353.67,-2640.11,4353.67,4011.68,-5001.25,-2640.11,-5001.25,7498.53,10,61,147,163,304,1139
7312.6,9.0537e-07,3.68e-07,3.66688e-07,1.69619e-07,3.66688e-07,-5.36586e-07,-4.54921e-07,1.69619e-07,-4.54921e-07,2.62196e-07,2359.57,1974.47,913.331,1974.47,-2511.28,-2449.57,913.331,-2449.57,1789.86,10,61,163,304,306,1140
13858.1,1.71577e-06,1.0116e-06,5.20729e-07,-1.05987e-07,5.20729e-07,-1.01645e-06,-9.38938e-07,-1.05987e-07,-9.38938e-07,2.14256e-07,6292.78,2803.93,-570.698,2803.93,-4627.48,-5055.82,-570.698,-5055.82,1999.37,10,59,259,305,314,1141
8220.5,1.01778e-06,0,-2.31547e-07,-5.01778e-08,-2.31547e-07,-7.57973e-07,-7.10285e-07,-5.01778e-08,-7.10285e-07,8.78074e-08,-2706.45,-1246.79,-270.187,-1246.79,-6787.85,-3824.61,-270.187,-3824.61,-2233.63,10,240,241,302,310,1142
12930.1,1.60086e-06,6.84127e-07,2.83734e-07,-1.28616e-08,2.83734e-07,-1.61055e-06,5.12618e-07,-1.28616e-08,5.12618e-07,4.2375e-07,1653.69,1527.8,-69.2546,1527.8,-10702.3,2760.26,-69.2546,2760.26,251.663,10,32,39,335,336,1143
7665.52,9.49063e-07,3.11978e-07,2.51609e-07,1.98906e-07,2.51609e-07,-7.66385e-07,-4.53458e-07,1.98906e-07,-4.53458e-07,2.51324e-07,859.727,1354.81,1071.03,1354.81,-4946.85,-2441.7,1071.03,-2441.7,533.133,10,163,164,168,304,1144
11813.4,1.46261e-06,8.37148e-07,1.56072e-07,4.32229e-08,1.56072e-07,-1.07793e-06,-7.97154e-07,4.32229e-08,-7.97154e-07,1.58214e-07,4174.26,840.392,232.739,840.392,-6137.68,-4292.36,232.739,-4292.36,518.467,10,258,259,305,327,1145
8526.7,1.05569e-06,4.41094e-07,4.16385e-07,7.93498e-08,4.16385e-07,-7.57922e-07,-4.81001e-07,7.93498e-08,-4.81001e-07,2.84568e-07,2244.83,2242.07,427.265,2242.07,-4211.41,-2590,427.265,-2590,1402,10,163,164,304,308,1146
9419.42,1.16621e-06,-7.12081e-11,5.66465e-07,7.87341e-08,5.66465e-07,-7.9047e-07,-6.42733e-07,7.87341e-08,-6.42733e-07,2.13831e-07,-2329.41,3050.2,423.949,3050.2,-6585.42,-3460.87,423.949,-3460.87,-1177.63,10,164,186,238,308,1147
8600.15,1.06478e-06,2.65418e-07,4.21243e-07,1.33348e-08,4.21243e-07,-6.33458e-07,-6.71544e-07,1.33348e-08,-6.71544e-07,5.92558e-08,182.155,2268.23,71.8002,2268.23,-4657.96,-3616.01,71.8002,-3616.01,-927.948,10,238,285,304,307,1148
79627.3,9.85871e-06,3.57329e-06,3.6073e-06,-3.39969e-06,3.6073e-06,-2.76721e-06,-5.74512e-06,-3.39969e-06,-5.74512e-06,4.37853e-06,40177.7,19423.4,-18306.1,19423.4,6036.19,-30934.7,-18306.1,-30934.7,44514,10,60,147,148,170,1149
7255.68,8.9832e-07,0,-7.51575e-08,0,-7.51575e-08,-1.33478e-06,-7.55374e-08,0,-7.55374e-08,0,-5390.47,-404.695,6.11393e-05,-404.695,-12577.8,-406.74,6.11393e-05,-406.74,-5390.47,10,222,225,230,273,1150
9492.93,1.17531e-06,7.02588e-07,-1.47723e-07,-5.9723e-08,-1.47723e-07,-1.0175e-06,-4.85046e-07,-5.9723e-08,-4.85046e-07,1.69767e-07,3197,-795.431,-321.584,-795.431,-6065,-2611.78,-321.584,-2611.78,327.97,10,255,257,261,303,1151
11327.3,1.40243e-06,2.68379e-08,-1.60086e-07,1.07666e-07,-1.60086e-07,-1.07566e-06,-9.38185e-07,1.07666e-07,-9.38185e-07,3.48193e-07,-2684.96,-861.999,579.744,-861.999,-8621.5,-5051.76,579.744,-5051.76,-954.575,10,212,213,214,286,1152
17632.6,2.18309e-06,1.65148e-06,-5.28285e-07,8.38288e-07,-5.28285e-07,-1.03421e-06,-8.88467e-07,8.38288e-07,-8.88467e-07,3.06002e-07,12621.1,-2844.62,4513.84,-2844.62,-1840.23,-4784.04,4513.84,-4784.04,5376.25,10,11,140,141,279,1153
7795.48,9.65153e-07,0,-2.3671e-07,0,-2.3671e-07,-1.17846e-06,-4.2389e-07,0,-4.2389e-07,0,-4759.19,-1274.59,0.00108058,-1274.59,-11104.8,-2282.49,0.00108058,-2282.49,-4759.18,10,230,235,236,293,1154
14656.9,1.81466e-06,9.7025e-07,4.99282e-08,-1.80456e-07,4.99282e-08,-1.64962e-06,-7.35892e-07,-1.80456e-07,-7.35892e-07,3.89481e-07,4053.7,268.845,-971.688,268.845,-10053.3,-3962.49,-971.688,-3962.49,926.483,10,289,314,327,328,1155
8655.99,1.07169e-06,3.57426e-07,-4.50019e-07,-1.24489e-07,-4.50019e-07,-7.54862e-07,-5.61435e-07,-1.24489e-07,-5.61435e-07,3.92398e-08,478.031,-2423.18,-670.324,-2423.18,-5511.22,-3023.11,-670.324,-3023.11,-1235.28,10,236,241,309,310,1156
8526.94,1.05572e-06,2.57339e-07,-5.69026e-07,-8.73175e-08,-5.69026e-07,-6.19905e-07,-4.96298e-07,-8.73175e-08,-4.96298e-07,2.62965e-07,983.428,-3063.98,-470.168,-3063.98,-3740.2,-2672.37,-470.168,-2672.37,1013.73,10,209,210,216,309,1157
20754.8,2.56964e-06,1.16247e-06,-7.77511e-07,-2.74958e-07,-7.77511e-07,-2.51998e-06,-2.23291e-07,-2.74958e-07,-2.23291e-07,9.01295e-07,4417,-4186.62,-1480.55,-4186.62,-15411.6,-1202.34,-1480.55,-1202.34,3010.66,10,41,143,146,281,1158
7480.15,9.26114e-07,3.17567e-07,-3.52329e-07,9.37671e-08,-3.52329e-07,-8.80974e-07,-8.18492e-08,9.37671e-08,-8.18492e-08,3.76733e-07,956.093,-1897.16,504.9,-1897.16,-5497.59,-440.727,504.9,-440.727,1274.68,10,50,180,182,296,1159
13047.8,1.61544e-06,-1.5213e-07,-1.02518e-06,4.11469e-08,-1.02518e-06,-1.28726e-06,4.19454e-08,4.11469e-08,4.19454e-08,6.00135e-07,-4208.48,-5520.2,221.562,-5520.2,-10320.7,225.864,221.562,225.864,-157.821,10,50,52,284,317,1160
25526.6,3.16044e-06,1.33636e-06,9.81384e-07,-4.91696e-07,9.81384e-07,-2.57272e-06,-1.12304e-06,-4.91696e-07,-1.12304e-06,1.28311e-06,7384.51,5284.39,-2647.58,5284.39,-13664.4,-6047.17,-2647.58,-6047.17,7097.77,10,56,64,67,312,1161
9114.74,1.12849e-06,2.36812e-07,7.52876e-07,6.59979e-08,7.52876e-07,-8.29792e-07,-1.48327e-07,6.59979e-08,-1.48327e-07,1.8578e-07,-369.322,4053.95,355.373,4053.95,-6112.59,-798.686,355.373,-798.686,-644.114,10,174,220,315,323,1162
6648.75,8.23178e-07,3.13789e-07,-1.39817e-07,3.35511e-08,-1.39817e-07,-8.22859e-07,3.56976e-07,3.35511e-08,3.56976e-07,7.91601e-08,-46.5436,-752.86,180.66,-752.86,-6166.96,1922.18,180.66,1922.18,-1309.93,10,206,252,331,334,1163
20561.1,2.54566e-06,1.98983e-07,1.3842e-06,-3.10149e-07,1.3842e-06,-2.17859e-06,-2.31726e-07,-3.10149e-07,-2.31726e-07,1.04574e-06,-2700.02,7453.43,-1670.04,7453.43,-15502.4,-1247.75,-1670.04,-1247.75,1859.43,10,24,25,66,326,1164
11520,1.42628e-06,4.24298e-07,5.66409e-07,-8.59204e-08,5.66409e-07,-1.41944e-06,-3.52184e-07,-8.59204e-08,-3.52184e-07,3.21502e-07,-435.821,3049.9,-462.649,3049.9,-10363.7,-1896.38,-462.649,-1896.38,-989.339,10,267,315,316,322,1165
18022.5,2.23136e-06,1.39607e-06,2.02244e-07,3.03279e-08,2.02244e-07,-2.01036e-06,-5.73018e-07,3.03279e-08,-5.73018e-07,8.71569e-07,8556.23,1089.01,163.304,1089.01,-9786.05,-3085.49,163.304,-3085.49,5732.01,10,57,58,67,314,1166
15327.8,1.89772e-06,-2.91806e-07,1.36642e-06,8.74168e-08,1.36642e-06,-7.38979e-07,-6.37212e-07,8.74168e-08,-6.37212e-07,5.38516e-07,-3559.29,7357.65,470.697,7357.65,-5967.18,-3431.14,470.697,-3431.14,911.667,10,62,63,66,313,1167
9357.93,1.1586e-06,1.20423e-07,4.08311e-07,2.22173e-08,4.08311e-07,-7.77861e-07,-7.46156e-07,2.22173e-08,-7.46156e-07,1.64466e-07,-1342.42,2198.6,119.628,2198.6,-6179.35,-4017.76,119.628,-4017.76,-1105.26,10,165,166,187,285,1168
7289.04,9.02452e-07,0,-7.22487e-07,1.32349e-23,-7.22487e-07,-4.73735e-07,1.18396e-07,1.32349e-23,1.18396e-07,0,-1913.16,-3890.32,-0.000921198,-3890.32,-4464.06,637.518,-0.000921198,637.518,-1913.17,10,48,179,201,223,1169
8534.31,1.05663e-06,2.46843e-07,-7.74e-07,-2.59764e-09,-7.74e-07,-5.90238e-07,1.70713e-07,-2.59764e-09,1.70713e-07,1.47419e-07,537.713,-4167.69,-13.9888,-4167.69,-3969.66,919.223,-13.9888,919.223,2.34489,10,48,201,208,295,1170
9696.92,1.20057e-06,4.93324e-07,-7.27922e-07,6.33819e-08,-7.27922e-07,-9.0665e-07,-8.50606e-08,6.33819e-08,-8.50606e-08,1.80337e-07,1715.43,-3919.58,341.287,-3919.58,-5822.89,-458.018,341.287,-458.018,30.1149,10,48,182,223,296,1171
10583.1,1.31029e-06,2.86882e-07,-6.09747e-07,4.055e-08,-6.09747e-07,-1.22934e-06,1.57971e-07,4.055e-08,1.57971e-07,5.00129e-07,-241.605,-3283.26,218.347,-3283.26,-8405.89,850.613,218.347,850.613,906.649,10,45,46,51,297,1172
6146.57,7.61003e-07,3.18992e-07,-8.54566e-08,1.30053e-07,-8.54566e-08,-6.92744e-07,3.7303e-07,1.30053e-07,3.7303e-07,2.57771e-08,312.363,-460.15,700.283,-460.15,-5135.45,2008.62,700.283,2008.62,-1266.49,10,204,205,206,331,1173
5781.79,7.15839e-07,0,2.9819e-07,0,2.9819e-07,-8.26993e-07,2.59672e-07,0,2.59672e-07,0,-3339.78,1605.64,0.000833881,1605.64,-7792.83,1398.24,0.000833881,1398.24,-3339.78,10,194,250,251,337,1174
5126.56,6.34716e-07,0,-1.52555e-07,0,-1.52555e-07,-6.52141e-07,3.70287e-07,0,3.70287e-07,0,-2633.65,-821.452,-0.000608347,-821.452,-6145.19,1993.85,-0.000608347,1993.85,-2633.65,10,192,204,206,252,1175
7632.59,9.44987e-07,7.11884e-09,-7.09382e-07,6.52772e-08,-7.09382e-07,-5.4184e-07,5.52621e-08,6.52772e-08,5.52621e-08,2.34255e-07,-1175.09,-3819.75,351.493,-3819.75,-4131.04,297.566,351.493,297.566,47.9471,10,48,179,182,223,1176
7419.73,9.18633e-07,0,7.3105e-07,0,7.3105e-07,-5.18407e-07,9.43349e-08,0,9.43349e-08,0,-2093.57,3936.42,0.000742685,3936.42,-4885,507.958,0.000742685,507.958,-2093.57,10,28,171,196,242,1177
7138.29,8.83787e-07,1.41168e-07,1.19875e-07,1.22983e-07,1.19875e-07,-1.02159e-06,2.43593e-07,1.22983e-07,2.43593e-07,2.50384e-07,-1784.26,645.484,662.215,645.484,-8045.28,1311.66,662.215,1311.66,-1196.17,10,26,27,176,329,1178
7297.56,9.03507e-07,9.60051e-08,6.72347e-07,8.8497e-08,6.72347e-07,-6.00387e-07,-1.92906e-08,8.8497e-08,-1.92906e-08,5.15278e-08,-1311.89,3620.33,476.523,3620.33,-5061.7,-103.872,476.523,-103.872,-1551.38,10,28,242,245,330,1179
6821.41,8.44555e-07,2.56923e-07,3.75936e-07,6.86614e-08,3.75936e-07,-8.05164e-07,2.85959e-07,6.86614e-08,2.85959e-07,4.64319e-10,-828.751,2024.27,369.716,2024.27,-6547.69,1539.78,369.716,1539.78,-2209.68,10,199,245,250,337,1180
9949.28,1.23181e-06,3.63376e-07,5.43829e-07,-2.13605e-07,5.43829e-07,-1.22875e-06,-4.25646e-08,-2.13605e-07,-4.25646e-08,2.62545e-07,-477.887,2928.31,-1150.18,2928.31,-9050.9,-229.197,-1150.18,-229.197,-1020.82,10,30,31,199,337,1181
11143.8,1.37971e-06,8.10519e-07,-1.22399e-07,-1.10506e-07,-1.22399e-07,-1.16702e-06,-6.13662e-07,-1.10506e-07,-6.13662e-07,1.94318e-07,3709.35,-659.07,-595.033,-659.07,-6938.93,-3304.33,-595.033,-3304.33,391.349,10,161,162,257,261,1182
9200.39,1.1391e-06,3.52614e-07,7.16578e-07,-1.40867e-07,7.16578e-07,-8.02973e-07,1.9742e-07,-1.40867e-07,1.9742e-07,2.23168e-07,981.181,3858.5,-758.514,3858.5,-5241.22,1063.03,-758.514,1063.03,284.16,10,29,30,199,321,1183
6960.61,8.61789e-07,0,6.66157e-07,0,6.66157e-07,-5.82858e-07,-1.78637e-09,0,-1.78637e-09,0,-2353.85,3587,-1.28155e-05,3587,-5492.33,-9.61894,-1.28155e-05,-9.61894,-2353.86,10,171,220,242,330,1184
7220.98,8.94025e-07,0,-6.62294e-07,0,-6.62294e-07,-6.44577e-07,-1.49449e-07,0,-1.49449e-07,0,-2603.1,-3566.2,0.00106593,-3566.2,-6073.91,-804.727,0.00106593,-804.727,-2603.1,10,177,178,223,324,1185
19086.4,2.36309e-06,1.68064e-06,-4.22625e-07,1.06373e-07,-4.22625e-07,-1.95537e-06,-5.92598e-07,1.06373e-07,-5.92598e-07,8.75394e-07,11475.4,-2275.68,572.771,-2275.68,-8103.13,-3190.92,572.771,-3190.92,7139.4,10,57,58,145,314,1186
7220.98,8.94025e-07,0,-6.62294e-07,0,-6.62294e-07,-6.44577e-07,-1.49449e-07,0,-1.49449e-07,0,-2603.1,-3566.2,0.00106593,-3566.2,-6073.91,-804.727,0.00106593,-804.727,-2603.1,10,177,223,226,324,1187
9528.44,1.17971e-06,7.15828e-08,-5.30119e-07,-1.03903e-08,-5.30119e-07,-1.10856e-06,7.00272e-08,-1.03903e-08,7.00272e-08,5.89974e-07,-1419.78,-2854.49,-55.9468,-2854.49,-7774.42,377.072,-55.9468,377.072,1371.56,10,50,284,296,317,1188
8026.88,9.93804e-07,0,7.92735e-07,0,7.92735e-07,-5.62955e-07,-8.16453e-08,0,-8.16453e-08,0,-2273.47,4268.57,-0.000697019,4268.57,-5304.79,-439.629,-0.000697019,-439.629,-2273.48,10,172,173,174,220,1189
7688.67,9.5193e-07,3.59199e-08,7.40364e-07,-7.88783e-08,7.40364e-07,-5.02292e-07,2.09146e-08,-7.88783e-08,2.09146e-08,1.63344e-07,-1030.35,3986.57,-424.729,3986.57,-3928.43,112.618,-424.729,112.618,-344.227,10,172,174,176,220,1190
8842.78,1.09482e-06,2.36405e-07,7.5109e-07,5.4386e-08,7.5109e-07,-7.58032e-07,-2.37907e-08,5.4386e-08,-2.37907e-08,2.41443e-07,141.437,4044.33,292.847,4044.33,-5213.23,-128.102,292.847,-128.102,168.562,10,174,176,220,315,1191
14930.3,1.8485e-06,5.50482e-07,2.7432e-07,6.98682e-08,2.7432e-07,-2.24058e-06,-1.61362e-07,6.98682e-08,-1.61362e-07,3.90732e-07,-2283.32,1477.11,376.214,1477.11,-17312.1,-868.87,376.214,-868.87,-3143.51,10,267,289,316,318,1192
7472.28,9.25138e-07,0,-7.31033e-07,0,-7.31033e-07,-5.66717e-07,-2.10962e-08,0,-2.10962e-08,0,-2288.67,-3936.33,0.000166084,-3936.33,-5340.24,-113.595,0.000166084,-113.595,-2288.67,10,178,179,182,223,1193
7347.26,9.0966e-07,2.47501e-07,-6.555e-07,1.44894e-07,-6.555e-07,-4.71048e-07,9.46592e-08,1.44894e-07,9.46592e-08,1.97574e-07,1227.8,-3529.61,780.198,-3529.61,-2641.32,509.703,780.198,509.703,958.957,10,47,207,208,295,1194
7795.48,9.65153e-07,0,-2.3671e-07,0,-2.3671e-07,-1.17846e-06,-4.2389e-07,0,-4.2389e-07,0,-4759.19,-1274.59,0.00108058,-1274.59,-11104.8,-2282.49,0.00108058,-2282.49,-4759.18,10,230,231,236,293,1195
8295.03,1.027e-06,4.85703e-07,-3.54196e-07,1.33957e-07,-3.54196e-07,-8.07471e-07,-3.62866e-07,1.33957e-07,-3.62866e-07,3.81076e-07,2854.83,-1907.21,721.305,-1907.21,-4108.42,-1953.89,721.305,-1953.89,2291.46,10,12,209,219,300,1196
14502.1,1.79549e-06,7.97217e-07,-6.5635e-07,-2.86553e-07,-6.5635e-07,-1.77036e-06,-1.98428e-07,-2.86553e-07,-1.98428e-07,3.21099e-07,1659.41,-3534.2,-1542.98,-3534.2,-12166,-1068.46,-1542.98,-1068.46,-904.3,10,140,144,146,311,1197
7811.44,9.67131e-07,1.56375e-08,-7.22109e-07,-7.41473e-08,-7.22109e-07,-5.81841e-07,-1.23043e-08,-7.41473e-08,-1.23043e-08,2.2238e-07,-1304.32,-3888.28,-399.255,-3888.28,-4521.53,-66.2541,-399.255,-66.2541,-191.094,10,178,182,223,324,1198
22329.4,2.76459e-06,1.62972e-06,2.21418e-07,3.8719e-07,2.21418e-07,-2.38115e-06,-1.07086e-06,3.8719e-07,-1.07086e-06,6.70404e-07,8448.12,1192.26,2084.87,1192.26,-13148.8,-5766.15,2084.87,-5766.15,3282.59,10,58,59,67,314,1199
13299.3,1.64658e-06,5.34807e-07,-5.6017e-07,-7.58679e-08,-5.6017e-07,-1.72217e-06,2.27104e-07,-7.58679e-08,2.27104e-07,4.86342e-07,48.677,-3016.31,-408.519,-3016.31,-12104.3,1222.87,-408.519,1222.87,-212.286,10,278,284,291,294,1200
6830.03,8.45623e-07,2.49551e-07,4.66412e-07,1.63227e-07,4.66412e-07,-6.44411e-07,-1.93342e-07,1.63227e-07,-1.93342e-07,2.08595e-07,591.505,2511.45,878.913,2511.45,-4222.14,-1041.07,878.913,-1041.07,370.974,10,62,63,189,322,1201
8164.68,1.01086e-06,2.86149e-07,7.21626e-07,1.58254e-08,7.21626e-07,-6.78148e-07,2.18582e-09,1.58254e-08,2.18582e-09,8.67503e-10,-38.771,3885.68,85.2137,3885.68,-5231.15,11.7698,85.2137,11.7698,-1574.91,10,220,242,265,330,1202
13890.6,1.71979e-06,6.74876e-07,-5.17847e-07,8.94624e-08,-5.17847e-07,-1.75989e-06,1.67058e-07,8.94624e-08,1.67058e-07,5.96131e-07,1659.6,-2788.41,481.721,-2788.41,-11450.7,899.545,481.721,899.545,1235.59,10,53,274,284,297,1203
6795.12,8.41299e-07,1.38287e-08,5.98096e-07,-4.7724e-08,5.98096e-07,-6.01752e-07,7.73798e-08,-4.7724e-08,7.73798e-08,1.64689e-07,-1634.76,3220.51,-256.975,3220.51,-4949.43,416.66,-256.975,416.66,-822.433,10,29,196,200,245,1204
6526.46,8.08036e-07,0,4.69247e-07,0,4.69247e-07,-8.98939e-07,-1.1654e-08,0,-1.1654e-08,0,-3630.33,2526.72,-5.88925e-05,2526.72,-8470.79,-62.7521,-5.88925e-05,-62.7521,-3630.34,10,220,221,242,265,1205
7359.71,9.11202e-07,0,7.39301e-07,0,7.39301e-07,-4.77781e-07,7.68581e-09,0,7.68581e-09,0,-1929.5,3980.85,6.11922e-05,3980.85,-4502.18,41.3851,6.11922e-05,41.3851,-1929.51,10,171,172,176,220,1206
73742.6,9.13012e-06,2.10773e-06,1.99729e-06,-1.11519e-06,1.99729e-06,-1.69168e-06,-6.64861e-06,-1.11519e-06,-6.64861e-06,5.53914e-06,35398.4,10754.4,-6004.94,10754.4,14939.6,-35799.6,-6004.94,-35799.6,53875.5,10,58,59,149,169,1207
54404.3,6.73581e-06,3.68396e-06,1.94592e-07,3.70945e-07,1.94592e-07,-1.62715e-06,-5.15585e-06,3.70945e-07,-5.15585e-06,1.83735e-06,35562.6,1047.74,1997.36,1047.74,6964.16,-27762,1997.36,-27762,25619.7,10,8,58,149,169,1208
9393.44,1.163e-06,1.23342e-07,6.11909e-08,1.86854e-08,6.11909e-08,-9.28352e-07,-7.70699e-07,1.86854e-08,-7.70699e-07,2.45188e-07,-1596.68,329.49,100.614,329.49,-7259.66,-4149.91,100.614,-4149.91,-940.573,10,159,160,212,286,1209
9630.43,1.19234e-06,5.63825e-07,-3.86541e-07,-1.70625e-07,-3.86541e-07,-1.02851e-06,-4.29081e-07,-1.70625e-07,-4.29081e-07,2.25029e-07,2068.11,-2081.38,-918.75,-2081.38,-6506.02,-2310.44,-918.75,-2310.44,243.827,10,255,256,257,279,1210
47713.3,5.90737e-06,1.01482e-06,-1.14069e-06,6.77986e-07,-1.14069e-06,-2.39697e-06,-4.041e-06,6.77986e-07,-4.041e-06,3.24803e-06,12999.4,-6142.11,3650.73,-6142.11,-5371.94,-21759,3650.73,-21759,25024.6,10,9,58,142,257,1211
8664.46,1.07274e-06,5.85551e-07,-5.00682e-08,1.1885e-07,-5.00682e-08,-8.28084e-07,-5.1537e-07,1.1885e-07,-5.1537e-07,3.72457e-07,3677.65,-269.597,639.96,-269.597,-3934.24,-2775.06,639.96,-2775.06,2530.22,10,160,161,255,286,1212
9691.05,1.19984e-06,4.79858e-07,-5.58596e-07,-1.25467e-07,-5.58596e-07,-7.66208e-07,-5.701e-07,-1.25467e-07,-5.701e-07,1.97843e-07,2226.41,-3007.82,-675.589,-3007.82,-4483.18,-3069.77,-675.589,-3069.77,707.87,10,140,279,301,309,1213
8666.74,1.07303e-06,5.58704e-07,-5.42315e-07,-1.87077e-07,-5.42315e-07,-5.73199e-07,-4.2559e-07,-1.87077e-07,-4.2559e-07,3.07425e-07,4191.38,-2920.16,-1007.34,-2920.16,-1903.48,-2291.64,-1007.34,-2291.64,2838.34,10,11,210,254,279,1214
9470.38,1.17252e-06,1.64541e-07,-3.86287e-07,3.83207e-08,-3.86287e-07,-7.67237e-07,-7.42692e-07,3.83207e-08,-7.42692e-07,2.77729e-07,-426.388,-2080.01,206.346,-2080.01,-5443.66,-3999.11,206.346,-3999.11,183.094,10,211,212,214,286,1215
8412.58,1.04156e-06,3.19732e-07,-3.11954e-07,-1.17203e-08,-3.11954e-07,-7.85941e-07,-6.03418e-07,-1.17203e-08,-6.03418e-07,1.40138e-07,404.805,-1679.75,-63.1076,-1679.75,-5548.83,-3249.17,-63.1076,-3249.17,-562.239,10,210,211,254,302,1216
7282.16,9.01601e-07,4.42411e-07,-2.4635e-07,-1.91397e-07,-2.4635e-07,-7.26066e-07,-3.54494e-07,-1.91397e-07,-3.54494e-07,2.2699e-07,2153.36,-1326.5,-1030.6,-1326.5,-4138.43,-1908.81,-1030.6,-1908.81,993.406,10,254,255,256,279,1217
8259.94,1.02266e-06,0,2.83715e-07,1.08544e-08,2.83715e-07,-6.39491e-07,-7.33653e-07,1.08544e-08,-7.33653e-07,1.1595e-07,-2114.31,1527.7,58.4446,1527.7,-5557.73,-3950.44,58.4446,-3950.44,-1489.96,10,238,239,285,307,1218
8812.69,1.09109e-06,1.9463e-07,4.29669e-07,1.45804e-07,4.29669e-07,-8.2298e-07,-5.69151e-07,1.45804e-07,-5.69151e-07,2.44865e-07,-500.692,2313.6,785.098,2313.6,-5980.14,-3064.66,785.098,-3064.66,-230.193,10,233,306,307,319,1219
6784.59,8.39997e-07,9.7105e-08,-4.43272e-07,-1.77778e-07,-4.43272e-07,-6.11762e-07,-2.20162e-07,-1.77778e-07,-2.20162e-07,3.5994e-07,-101.951,-2386.85,-957.265,-2386.85,-3918.93,-1185.49,-957.265,-1185.49,1313.31,10,12,13,219,298,1220
8109.56,1.00404e-06,5.15885e-07,2.55762e-07,1.27884e-07,2.55762e-07,-8.9003e-07,-3.65853e-07,1.27884e-07,-3.65853e-07,1.85642e-07,2016.57,1377.18,688.606,1377.18,-5553.75,-1969.98,688.606,-1969.98,238.339,10,167,168,170,305,1221
5610.6,6.94645e-07,2.8821e-07,-3.61991e-07,-8.47846e-08,-3.61991e-07,-5.38104e-07,-3.33899e-08,-8.47846e-08,-3.33899e-08,2.69487e-07,1631.02,-1949.18,-456.532,-1949.18,-2818.37,-179.791,-456.532,-179.791,1530.2,10,180,181,182,324,1222
10393.7,1.28684e-06,4.81005e-07,-2.7303e-07,-3.23886e-09,-2.7303e-07,-1.33008e-06,-3.71281e-07,-3.23886e-09,-3.71281e-07,3.6834e-07,648.584,-1470.16,-17.4396,-1470.16,-9103.43,-1999.2,-17.4396,-1999.2,41.9266,10,230,287,290,293,1223
8192.23,1.01428e-06,2.8715e-07,2.43296e-07,2.19667e-08,2.43296e-07,-7.62749e-07,-6.13069e-07,2.19667e-08,-6.13069e-07,1.88104e-07,385.146,1310.05,118.28,1310.05,-5268.17,-3301.14,118.28,-3301.14,-148.177,10,164,165,168,285,1224
7539.43,9.33452e-07,0,5.2206e-07,0,5.2206e-07,-8.88483e-07,-3.43247e-07,0,-3.43247e-07,0,-3588.11,2811.09,-0.0019298,2811.09,-8372.26,-1848.25,-0.0019298,-1848.25,-3588.11,10,221,228,229,316,1225
8822.85,1.09235e-06,0,-4.81999e-07,1.05879e-22,-4.81999e-07,-6.95761e-07,-7.07983e-07,1.05879e-22,-7.07983e-07,0,-2809.81,-2595.38,0.00367498,-2595.38,-6556.23,-3812.22,0.00367498,-3812.22,-2809.81,10,210,215,216,241,1226
21585.6,2.6725e-06,1.36177e-06,-4.85486e-07,3.17157e-07,-4.85486e-07,-2.63189e-06,7.66315e-07,3.17157e-07,7.66315e-07,5.21448e-07,4309.1,-2614.17,1707.77,-2614.17,-17195.3,4126.31,1707.77,4126.31,-215.729,10,34,44,53,272,1227
8969.02,1.11045e-06,3.47179e-07,-4.6368e-07,-1.08645e-07,-4.6368e-07,-8.02616e-07,-5.29935e-07,-1.08645e-07,-5.29935e-07,2.82232e-07,1169.93,-2496.74,-585.009,-2496.74,-5021.28,-2853.49,-585.009,-2853.49,820.218,10,279,301,309,310,1228
78566,9.72734e-06,3.9857e-06,2.56078e-06,-2.00776e-06,2.56078e-06,-1.85656e-06,-6.73919e-06,-2.00776e-06,-6.73919e-06,5.45575e-06,52091.7,13788.4,-10811.1,13788.4,20633.2,-36287.2,-10811.1,-36287.2,60007.8,10,59,148,149,170,1229
34590.9,4.28269e-06,2.34985e-06,-2.39635e-06,1.20215e-06,-2.39635e-06,-1.95292e-06,-1.28976e-06,1.20215e-06,-1.28976e-06,1.10919e-06,18735.3,-12903.3,6473.13,-12903.3,-4433.52,-6944.81,6473.13,-6944.81,12054.8,10,10,141,256,257,1230
8723.62,1.08007e-06,9.99055e-10,-4.75338e-07,-3.42273e-08,-4.75338e-07,-8.92889e-07,-4.9118e-07,-3.42273e-08,-4.9118e-07,3.41659e-07,-2216.71,-2559.51,-184.299,-2559.51,-7029.96,-2644.82,-184.299,-2644.82,-382.392,10,231,232,292,299,1231
9298.71,1.15127e-06,5.75489e-07,-2.12822e-07,-1.0302e-08,-2.12822e-07,-1.05084e-06,-4.59933e-07,-1.0302e-08,-4.59933e-07,2.39468e-07,2146.17,-1145.96,-55.4715,-1145.96,-6611,-2476.56,-55.4715,-2476.56,336.826,10,161,255,257,261,1232
50175.6,6.21225e-06,8.93327e-07,-1.15867e-06,8.04377e-07,-1.15867e-06,-1.85843e-06,-4.45702e-06,8.04377e-07,-4.45702e-06,3.46575e-06,14908.6,-6238.96,4331.3,-6238.96,91.306,-23999.1,4331.3,-23999.1,28760.3,10,8,9,58,257,1233
9173.67,1.13579e-06,5.12644e-07,-1.23696e-07,-4.11729e-08,-1.23696e-07,-7.52003e-07,-7.24742e-07,-4.11729e-08,-7.24742e-07,1.56527e-07,2425.86,-666.055,-221.699,-666.055,-4383.79,-3902.45,-221.699,-3902.45,508.311,10,240,258,286,302,1234
12922.5,1.59992e-06,1.03688e-06,3.26339e-08,1.43121e-07,3.26339e-08,-1.34596e-06,-6.90352e-07,1.43121e-07,-6.90352e-07,-7.33344e-08,4038.85,175.726,770.657,175.726,-8791.83,-3717.28,770.657,-3717.28,-1939.24,10,58,162,169,259,1235
15357.4,1.90139e-06,1.60848e-06,2.34839e-07,5.37786e-07,2.34839e-07,-1.27755e-06,-5.31304e-07,5.37786e-07,-5.31304e-07,7.82785e-08,10313.6,1264.52,2895.77,1264.52,-5226.58,-2860.86,2895.77,-2860.86,2074.05,10,58,59,169,259,1236
11439.1,1.41627e-06,6.53308e-07,-2.83108e-07,-1.43257e-07,-2.83108e-07,-9.16944e-07,-8.22885e-07,-1.43257e-07,-8.22885e-07,4.42969e-07,4242.03,-1524.43,-771.382,-1524.43,-4213.17,-4430.92,-771.382,-4430.92,3109.43,10,141,279,303,311,1237
13217.3,1.63643e-06,-2.00189e-07,-1.11427e-06,2.53513e-08,-1.11427e-06,-6.1428e-07,-4.83007e-07,2.53513e-08,-4.83007e-07,8.05232e-07,-1115.26,-5999.92,136.511,-5999.92,-3344.99,-2600.8,136.511,-2600.8,4298.54,10,0,13,146,317,1238
9148.12,1.13262e-06,7.51703e-08,-4.78245e-07,-1.0015e-07,-4.78245e-07,-6.98257e-07,-7.12632e-07,-1.0015e-07,-7.12632e-07,1.33385e-07,-1572.89,-2575.17,-539.268,-2575.17,-5737.51,-3837.25,-539.268,-3837.25,-1259.42,10,210,211,215,241,1239
80856.3,1.00109e-05,4.20326e-06,3.73794e-06,-3.40457e-06,3.73794e-06,-2.77529e-06,-5.74028e-06,-3.40457e-06,-5.74028e-06,4.37759e-06,46077.5,20126.9,-18332.4,20126.9,8500.33,-30908.6,-18332.4,-30908.6,47016.6,10,59,60,148,170,1240
77301.1,9.5707e-06,1.86269e-06,1.63003e-06,-3.03192e-06,1.63003e-06,-1.68306e-06,-6.63027e-06,-3.03192e-06,-6.63027e-06,5.49692e-06,32953.5,8776.8,-16325.6,8776.8,13860.7,-35700.9,-16325.6,-35700.9,52522.9,10,59,149,169,170,1241
5731.25,7.09583e-07,2.56031e-07,-5.23752e-08,-5.03342e-08,-5.23752e-08,-6.80161e-07,3.71124e-07,-5.03342e-08,3.71124e-07,3.62383e-09,-319.575,-282.02,-271.031,-282.02,-5360.61,1998.36,-271.031,1998.36,-1678.69,10,192,206,252,334,1242
6956.23,8.61248e-07,4.04235e-07,4.5363e-07,2.44822e-07,4.5363e-07,-4.74558e-07,-2.71974e-07,2.44822e-07,-2.71974e-07,2.30662e-07,2824.17,2442.62,1318.27,2442.62,-1907.8,-1464.48,1318.27,-1464.48,1889.55,10,147,163,168,304,1243
7583.12,9.38861e-07,0,6.28263e-07,0,6.28263e-07,-8.49005e-07,-1.61587e-07,0,-1.61587e-07,0,-3428.68,3382.96,-0.00109329,3382.96,-8000.26,-870.085,-0.00109329,-870.085,-3428.68,10,220,221,227,315,1244
10967.9,1.35793e-06,7.68644e-07,-3.6134e-07,-2.22519e-07,-3.6134e-07,-9.37661e-07,-6.86653e-07,-2.22519e-07,-6.86653e-07,1.86037e-08,3531.4,-1945.68,-1198.18,-1945.68,-5656.4,-3697.36,-1198.18,-3697.36,-507.273,10,58,142,257,303,1245
8195.93,1.01473e-06,0,-1.74134e-07,0,-1.74134e-07,-5.89513e-07,-7.91263e-07,0,-7.91263e-07,0,-2380.73,-937.645,0.00148385,-937.645,-5555.04,-4260.65,0.00148385,-4260.65,-2380.73,10,213,214,240,286,1246
9544.83,1.18174e-06,6.49844e-07,-3.3116e-07,-1.15489e-07,-3.3116e-07,-1.01969e-06,-4.15385e-07,-1.15489e-07,-4.15385e-07,2.21276e-07,2899.16,-1783.17,-621.863,-1783.17,-6090.64,-2236.69,-621.863,-2236.69,591.482,10,141,257,279,303,1247
10046.9,1.2439e-06,6.96127e-07,-4.04007e-07,-1.51205e-07,-4.04007e-07,-1.03103e-06,-4.23932e-07,-1.51205e-07,-4.23932e-07,2.1555e-07,3266.35,-2175.42,-814.181,-2175.42,-6033.74,-2282.71,-814.181,-2282.71,678.63,10,255,257,279,303,1248
8119.3,1.00525e-06,1.9586e-07,7.85324e-07,-7.71226e-08,7.85324e-07,-5.12718e-07,-5.99702e-08,-7.71226e-08,-5.99702e-08,-2.32597e-08,-318.921,4228.67,-415.276,4228.67,-4134.36,-322.916,-415.276,-322.916,-1498.8,10,171,176,220,330,1249
49336.8,6.10839e-06,7.36534e-07,-1.11771e-06,1.2264e-07,-1.11771e-06,-1.80673e-06,-4.46759e-06,1.2264e-07,-4.46759e-06,3.39313e-06,13346.7,-6018.41,660.438,-6018.41,-347.947,-24056,660.438,-24056,27651.6,10,8,58,162,169,1250
13122.1,1.62464e-06,-1.67355e-07,-1.02649e-06,7.33149e-08,-1.02649e-06,-1.28735e-06,4.60799e-08,7.33149e-08,4.60799e-08,6.19672e-07,-4273.42,-5527.26,394.775,-5527.26,-10304.2,248.127,394.775,248.127,-35.5745,10,50,51,52,284,1251
8204.83,1.01583e-06,2.52562e-07,9.36672e-08,-2.82667e-08,9.36672e-08,-6.09707e-07,-7.54446e-07,-2.82667e-08,-7.54446e-07,-1.15202e-08,-128.902,504.362,-152.206,504.362,-4771.9,-4062.4,-152.206,-4062.4,-1550.88,10,159,239,260,286,1252
1.1832,0.000394241,0,0,-0.00025078,0,0,0.000184128,-0.00025078,0.000184128,-0.000243572,-24.1386,-0.000184777,-0.501641,-0.000184777,-24.1387,0.368316,-0.501641,0.368316,-24.6266,10,134,346,349,351,1253
18.9409,0.00637697,0.00497825,-0.0041069,0.00115446,-0.0041069,0.00163093,-0.00213444,0.00115446,-0.00213444,-0.000546224,602.903,-8.1325,2.28775,-8.1325,596.281,-4.22864,2.28775,-4.22864,591.969,10,91,92,138,208,1254
0.977946,0.00032574,-0.000300177,0.000134648,-0.000184501,0.000134648,-3.72768e-05,9.43856e-05,-0.000184501,9.43856e-05,-0.000108191,-44.7419,0.269418,-0.369325,0.269418,-44.2156,0.188881,-0.369325,0.188881,-44.3577,10,204,206,346,351,1255
0.782596,0.000260726,-0.00030131,9.98466e-05,-0.000107699,9.98466e-05,1.53669e-05,2.09031e-05,-0.000107699,2.09031e-05,-3.47078e-05,-32.3609,0.199718,-0.215504,0.199718,-31.7271,0.0417917,-0.215504,0.0417917,-31.8274,10,133,206,349,351,1256
1.13132,0.000376985,-0.00028505,0.000164062,0.000117319,0.000164062,-8.86149e-05,-0.000106635,0.000117319,-0.000106635,0.000180143,-19.7513,0.328119,0.235016,0.328119,-19.3583,-0.213501,0.235016,-0.213501,-18.8209,10,203,205,207,351,1257
4.91397,0.00164142,0.00114833,0.00116666,5.64085e-05,0.00116666,0.000207079,-0.000485313,5.64085e-05,-0.000485313,-9.5744e-05,126.542,2.33024,0.115785,2.33024,124.672,-0.967241,0.115785,-0.967241,124.062,10,137,203,207,351,1258
1.1832,0.000394241,0,0,-0.00025078,0,0,0.000184128,-0.00025078,0.000184128,-0.000243572,-24.1386,-0.000184777,-0.501641,-0.000184777,-24.1387,0.368316,-0.501641,0.368316,-24.6266,10,134,346,347,351,1259
1.1832,0.000394241,0,0,-0.00025078,0,0,0.000184128,-0.00025078,0.000184128,-0.000243572,-24.1386,-0.000184777,-0.501641,-0.000184777,-24.1387,0.368316,-0.501641,0.368316,-24.6266,10,134,135,347,351,1260
4.87911,0.00163037,0.000760157,0.000636082,0.000584689,0.000636082,0.000415323,0.0010912,0.000584689,0.0010912,0.000304795,147.597,1.27096,1.16439,1.27096,146.914,2.17682,1.16439,2.17682,146.684,10,135,137,347,351,1261
16.7387,0.00565177,0.0055051,-0.00356266,-0.00181829,-0.00356266,0.00167401,0.00114658,-0.00181829,0.00114658,0.000602495,774.574,-7.05681,-3.57655,-7.05681,767.084,2.26995,-3.57655,2.26995,764.924,10,70,77,197,352,1262
4.66262,0.00155689,0.00138671,-0.000865634,-5.79262e-05,-0.000865634,9.44283e-05,-0.000427084,-5.79262e-05,-0.000427084,-0.000440986,105.345,-1.73062,-0.120014,-1.73062,102.771,-0.850682,-0.120014,-0.850682,101.698,10,79,194,199,352,1263
0.71233,0.000237364,0,0,0.000168504,0,0,-2.12488e-05,0.000168504,-2.12488e-05,-0.000200583,-19.8673,-1.43268e-05,0.337053,-1.43268e-05,-19.8674,-0.0425033,0.337053,-0.0425033,-20.2688,10,70,342,343,352,1264
0.539424,0.000179734,-0.000177707,-2.99948e-05,0.000119223,-2.99948e-05,1.03983e-05,1.61661e-05,0.000119223,1.61661e-05,-7.8973e-05,-24.7442,-0.0600414,0.238542,-0.0600414,-24.3679,0.0323647,0.238542,0.0323647,-24.5467,10,193,343,350,352,1265
18.3883,0.00607702,0.00060167,-0.00249013,-0.00215385,-0.00249013,-0.00569074,-0.00219142,-0.00215385,-0.00219142,-8.19974e-07,-509.048,-4.96452,-4.33929,-4.96452,-521.802,-4.47013,-4.33929,-4.47013,-510.351,10,74,75,195,200,1266
0.71233,0.000237364,0,0,0.000168504,0,0,-2.12488e-05,0.000168504,-2.12488e-05,-0.000200583,-19.8673,-1.43268e-05,0.337053,-1.43268e-05,-19.8674,-0.0425033,0.337053,-0.0425033,-20.2688,10,70,71,350,352,1267
4.68637,0.0015618,0.000835987,3.13367e-05,0.000502974,3.13367e-05,-0.00118196,0.000710054,0.000502974,0.000710054,0.000226698,-10.5014,0.0680405,1.00446,0.0680405,-14.5351,1.42448,1.00446,1.42448,-11.7239,10,134,135,137,351,1268
12.6786,0.00423062,0.0039674,-1.16146e-05,0.000351514,-1.16146e-05,-0.00018784,-0.000769574,0.000351514,-0.000769574,-0.00312753,69.7866,-0.0105485,0.753766,-0.0105485,61.4896,-1.53748,0.753766,-1.53748,55.622,10,138,202,207,208,1269
4.13644,0.0013744,0,-0.000411647,0,-0.000411647,-0.00191803,-0.000144929,0,-0.000144929,0,-190.286,-0.824349,0.000239405,-0.824349,-194.136,-0.29023,0.000239405,-0.29023,-190.287,10,131,132,137,347,1270
0.00302806,1.00935e-06,-2.09335e-09,-2.64145e-08,7.79343e-09,-2.64145e-08,-2.65843e-07,7.1796e-07,7.79343e-09,7.1796e-07,-9.65489e-07,-0.122114,-5.28291e-05,1.55869e-05,-5.28291e-05,-0.122641,0.00143592,1.55869e-05,0.00143592,-0.12404,10,71,72,190,191,1271
0.627746,0.000209143,-0.000264228,2.61264e-05,0.000108727,2.61264e-05,-2.35158e-06,-8.93566e-06,0.000108727,-8.93566e-06,-3.72171e-05,-30.6141,0.0522764,0.217543,0.0522764,-30.0901,-0.0178763,0.217543,-0.0178763,-30.1598,10,71,198,350,352,1272
31.9509,0.0104339,0.00201507,-0.00105359,-0.000574053,-0.00105359,-0.0142355,0.00112439,-0.000574053,0.00112439,0.000116752,-1215.58,-2.33566,-1.15411,-2.33566,-1248.7,2.35161,-1.15411,2.35161,-1219.44,10,70,71,78,197,1273
47.5419,0.015274,-4.30315e-06,-0.0016141,-0.000161396,-0.0016141,-0.0222008,0.00183997,-0.000161396,0.00183997,0.000617112,-2188.79,-3.42379,-0.314251,-3.42379,-2234.79,4.01704,-0.314251,4.01704,-2187.52,10,71,72,73,190,1274
47.5316,0.0152712,1.48789e-05,0.00154813,0.000179395,0.00154813,-0.0222008,0.00183997,0.000179395,0.00183997,0.000617112,-2186.81,3.2902,0.351917,3.2902,-2232.85,4.01691,0.351917,4.01691,-2185.58,10,72,73,133,190,1275
46.4633,0.0149735,0.00159412,0.000187354,0.000719361,0.000187354,-0.0214885,0.000811989,0.000719361,0.000811989,0.00011375,-2002.55,0.430819,1.48284,0.430819,-2050.3,1.81256,1.48284,1.81256,-2005.63,10,73,133,139,190,1276
0.584613,0.00019478,-0.000238966,-7.99325e-06,0.000108014,-7.99325e-06,5.46251e-06,9.93814e-06,0.000108014,9.93814e-06,-4.55795e-05,-28.1156,-0.0160177,0.216115,-0.0160177,-27.6265,0.0198953,0.216115,0.0198953,-27.7286,10,193,198,350,352,1277
0.00290501,9.68335e-07,0,0,7.9248e-10,0,0,5.10521e-07,7.9248e-10,5.10521e-07,-1.15233e-06,-0.114081,1.61832e-12,1.58496e-06,1.61832e-12,-0.114081,0.00102104,1.58496e-06,0.00102104,-0.116386,10,71,72,191,348,1278
0.00303118,1.01039e-06,2.09412e-09,1.18908e-08,2.17745e-08,1.18908e-08,-2.65843e-07,7.1796e-07,2.17745e-08,7.1796e-07,-9.65489e-07,-0.121691,2.37817e-05,4.3549e-05,2.37817e-05,-0.122226,0.00143592,4.3549e-05,0.00143592,-0.123626,10,72,133,190,191,1279
5.46048,0.00182166,0.00109072,7.86695e-05,-0.00088695,7.86695e-05,-0.00126877,0.000328289,-0.00088695,0.000328289,0.000678574,51.2288,0.149569,-1.77164,0.149569,46.5137,0.662404,-1.77164,0.662404,50.4018,10,69,70,79,352,1280
46.3612,0.0149399,0.00159272,-0.000215726,-0.000685061,-0.000215726,-0.0214663,0.000785465,-0.000685061,0.000785465,6.3916e-05,-2005.32,-0.48438,-1.41188,-0.48438,-2053.01,1.75513,-1.41188,1.75513,-2008.49,10,71,73,78,190,1281
0.385655,0.000128557,0,-9.49189e-05,0,-9.49189e-05,2.39637e-05,5.65164e-05,0,5.65164e-05,0,2.36996,-0.189835,-2.1457e-05,-0.189835,2.4178,0.113031,-2.1457e-05,0.113031,2.36993,10,194,342,343,352,1282
30.9523,0.0101734,0.00350893,-0.00176387,0.00156094,-0.00176387,-0.0124139,-0.000138812,0.00156094,-0.000138812,0.000648064,-828.222,-3.46801,3.17162,-3.46801,-860.565,-0.241892,3.17162,-0.241892,-834.046,10,134,136,139,205,1283
4.03693,0.0013466,0.000906967,0.000701247,0.000388516,0.000701247,-0.000640819,0.000343609,0.000388516,0.000343609,0.00016485,44.2027,1.40392,0.775504,1.40392,41.1136,0.687719,0.775504,0.687719,42.721,10,137,203,347,351,1284
18.1852,0.00613257,0,0.0034172,-2.16523e-19,0.0034172,0.00704177,1.59275e-05,-2.16523e-19,1.59275e-05,0,690.05,6.80271,0.000215195,6.80271,703.878,0.0317072,0.000215195,0.0317072,690.004,10,74,75,195,340,1285
11.8292,0.00394932,0.003731,-0.000526121,0.000628492,-0.000526121,-0.000395282,-0.00116393,0.000628492,-0.00116393,-0.00236256,101.431,-1.0318,1.29563,-1.0318,93.1906,-2.32821,1.29563,-2.32821,89.2788,10,46,47,138,207,1286
17.588,0.00592959,0.00557077,-0.00381843,-0.00104551,-0.00381843,0.00150955,0.00138042,-0.00104551,0.00138042,-0.000201869,685.252,-7.57752,-2.03255,-7.57752,677.298,2.71847,-2.03255,2.71847,673.854,10,47,48,91,208,1287
17.2608,0.00573682,0.00378049,-0.000616803,-0.00160919,-0.000616803,-0.000455278,-0.00151824,-0.00160919,-0.00151824,-0.00502833,-166.09,-1.26319,-3.31443,-1.26319,-174.547,-3.0335,-3.31443,-3.0335,-183.695,10,80,195,199,200,1288
20.3099,0.00682589,0.00520811,0.00388516,-0.00135915,0.00388516,0.000916157,-0.00275494,-0.00135915,-0.00275494,-0.00111203,498.84,7.70339,-2.70349,7.70339,490.319,-5.46854,-2.70349,-5.46854,486.31,10,74,75,80,200,1289
15.1212,0.00502573,0.0031741,0.000705082,-0.00153951,0.000705082,-0.0025643,-0.00235574,-0.00153951,-0.00235574,-0.00231869,-166.716,1.37065,-3.15012,1.37065,-178.199,-4.72622,-3.15012,-4.72622,-177.685,10,30,77,80,199,1290
24.9085,0.00822574,0.00326638,0.000803906,0.00105387,0.000803906,-0.00806839,-0.00398585,0.00105387,-0.00398585,-0.000682939,-547.61,1.5547,2.10009,1.5547,-570.454,-8.10815,2.10009,-8.10815,-555.666,10,31,77,78,197,1291
30.3822,0.0099867,0.0035063,0.00176301,-0.00137252,0.00176301,-0.0122307,-2.07511e-05,-0.00137252,-2.07511e-05,0.000504537,-823.969,3.47008,-2.78686,3.47008,-855.932,-0.00765334,-2.78686,-0.00765334,-830.08,10,70,77,78,197,1292
20.3936,0.00679097,0.00254717,0.0022344,-0.00234691,0.0022344,-0.00403978,-0.0035041,-0.00234691,-0.0035041,0.000952286,-55.3015,4.40054,-4.73882,4.40054,-68.5387,-6.99719,-4.73882,-6.99719,-58.4364,10,77,79,80,199,1293
14.1193,0.00470102,0.00328966,-0.000406132,0.00117365,-0.000406132,-0.00288634,-0.00222854,0.00117365,-0.00222854,-0.00105947,-61.6884,-0.864701,2.3157,-0.864701,-74.0421,-4.47264,2.3157,-4.47264,-70.4244,10,30,31,77,199,1294
0.00312466,1.04155e-06,4.13337e-07,-1.53958e-07,3.18522e-07,-1.53958e-07,-2.9028e-07,5.741e-07,3.18522e-07,5.741e-07,-7.783e-07,-0.0640425,-0.000307916,0.000637045,-0.000307916,-0.0654498,0.0011482,0.000637045,0.0011482,-0.0664258,10,133,190,205,206,1295
25.1768,0.00830994,0.00326669,-0.00079766,-0.000896326,-0.00079766,-0.00818959,-0.00408691,-0.000896326,-0.00408691,-0.000876543,-579.072,-1.54038,-1.77962,-1.54038,-602.172,-8.31591,-1.77962,-8.31591,-587.525,10,45,136,139,205,1296
43.8763,0.0142513,0.00164022,0.000820185,-0.000825825,0.000820185,-0.0157002,-0.00800422,-0.000825825,-0.00800422,-0.00109808,-1536.05,1.72022,-1.6732,1.72022,-1571.42,-16.6225,-1.6732,-16.6225,-1541.89,10,44,73,139,190,1297
14.2633,0.00474629,0.00337061,-0.00138159,0.000203032,-0.00138159,-0.0024251,-0.00214642,0.000203032,-0.00214642,-0.00194019,-95.1198,-2.73711,0.449006,-2.73711,-106.737,-4.31026,0.449006,-4.31026,-105.767,10,46,136,138,207,1298
11.7601,0.00392774,0.00387385,-0.000280073,0.000691257,-0.000280073,-0.000297385,-0.000940015,0.000691257,-0.000940015,-0.00237613,124.211,-0.543397,1.42089,-0.543397,115.89,-1.87826,1.42089,-1.87826,111.753,10,47,138,207,208,1299
14.4502,0.00480827,0.00326485,0.000430593,-0.00104605,0.000430593,-0.00292464,-0.00238738,-0.00104605,-0.00238738,-0.00136249,-98.1572,0.915388,-2.05781,0.915388,-110.544,-4.79164,-2.05781,-4.79164,-107.455,10,45,136,205,207,1300
18.9617,0.00632291,0.00261063,-0.00306796,0.00135577,-0.00306796,-0.00287961,-0.00332275,0.00135577,-0.00332275,0.000552982,27.3827,-6.08705,2.74283,-6.08705,16.3333,-6.64003,2.74283,-6.64003,23.2652,10,136,137,138,207,1301
25.8917,0.00852598,0.00163111,0.00134198,-0.0013015,0.00134198,-0.00841777,-0.00477426,-0.0013015,-0.00477426,-0.000400437,-720.924,2.82355,-2.57791,2.82355,-741.146,-9.74305,-2.57791,-9.74305,-725.117,10,44,45,139,205,1302
0.00290501,9.68335e-07,0,-5.16988e-26,7.9248e-10,-5.16988e-26,0,5.10521e-07,7.9248e-10,5.10521e-07,-1.15233e-06,-0.114081,1.61832e-12,1.58496e-06,1.61832e-12,-0.114081,0.00102104,1.58496e-06,0.00102104,-0.116386,10,191,344,345,348,1303
43.4478,0.0140762,-2.9555e-06,-0.00151684,-0.000150159,-0.00151684,-0.0152035,-0.00871726,-0.000150159,-0.00871726,-0.00147323,-1690.95,-3.16807,-0.359817,-3.16807,-1721.94,-18.1437,-0.359817,-18.1437,-1694.23,10,32,33,73,190,1304
43.8672,0.0142488,0.00163719,-0.000830834,0.000809988,-0.000830834,-0.0157224,-0.00797681,0.000809988,-0.00797681,-0.00105365,-1534.12,-1.73756,1.64247,-1.73756,-1569.54,-16.5653,1.64247,-16.5653,-1539.86,10,32,73,78,190,1305
0.899788,0.000299874,-0.000309113,3.38e-05,1.17159e-05,3.38e-05,0.000116103,-0.00010117,1.17159e-05,-0.00010117,8.28776e-05,-11.5353,0.0674153,0.0236033,0.0674153,-10.6847,-0.202382,0.0236033,-0.202382,-10.7512,10,133,205,206,351,1306
43.4389,0.0140737,1.49741e-05,0.00146998,0.000102107,0.00146998,-0.0152035,-0.00871726,0.000102107,-0.00871726,-0.00147323,-1689.1,3.07458,0.261185,3.07458,-1720.13,-18.1431,0.261185,-18.1431,-1692.42,10,33,44,73,190,1307
24.7423,0.00814941,0.000984168,0.000430039,-0.00145516,0.000430039,-0.00761298,-0.00512379,-0.00145516,-0.00512379,-0.000428478,-708.351,0.949388,-2.90735,0.949388,-725.651,-10.447,-2.90735,-10.447,-711.324,10,44,139,190,205,1308
0.844042,0.000281152,-0.0002718,0.000162535,-0.000119634,0.000162535,-9.22963e-05,7.0454e-05,-0.000119634,7.0454e-05,-5.31777e-05,-41.8716,0.325282,-0.239437,0.325282,-41.5123,0.140994,-0.239437,0.140994,-41.434,10,206,346,349,351,1309
24.3549,0.00802427,0.000967564,-0.000427638,0.00144424,-0.000427638,-0.00750769,-0.00501957,0.00144424,-0.00501957,-0.000336053,-690.063,-0.941877,2.8859,-0.941877,-707.114,-10.2322,2.8859,-10.2322,-692.812,10,32,78,190,197,1310
7.15872,0.00237485,-0.00015803,0.000778557,0.000697871,0.000778557,-0.00080831,-0.00153924,0.000697871,-0.00153924,-0.00189222,-284.422,1.56361,1.39734,1.56361,-285.74,-3.09688,1.39734,-3.09688,-287.906,10,75,80,195,200,1311
31.0606,0.0101243,0.000783206,-0.000920807,0.000727572,-0.000920807,-0.0142192,0.00178589,0.000727572,0.00178589,0.000219175,-1328.23,-1.77042,1.47914,-1.77042,-1358.93,3.7336,1.47914,3.7336,-1329.42,10,133,139,190,205,1312
25.4889,0.00839584,0.00160215,-0.00132556,0.0013026,-0.00132556,-0.00829918,-0.00467299,0.0013026,-0.00467299,-0.0003148,-703.214,-2.78624,2.58153,-2.78624,-723.135,-9.53456,2.58153,-9.53456,-707.172,10,31,32,78,197,1313
5.21814,0.00174544,0.000870199,-0.000632355,-0.000947499,-0.000632355,0.000389152,0.000956851,-0.000947499,0.000956851,0.000833734,208.357,-1.26272,-1.887,-1.26272,207.4,1.90763,-1.887,1.90763,208.279,10,69,79,342,352,1314
0.799535,0.000266527,-0.000177114,-3.3398e-05,-0.00011804,-3.3398e-05,1.09534e-05,4.91344e-05,-0.00011804,4.91344e-05,0.000201378,3.1218,-0.066834,-0.236241,-0.066834,3.49779,0.0982331,-0.236241,0.0982331,3.87852,10,193,194,197,352,1315
30.634,0.00998766,0.000769996,0.000901854,-0.000704346,0.000901854,-0.0140265,0.00182475,-0.000704346,0.00182475,0.000178038,-1314.02,1.73457,-1.43093,1.73457,-1344.28,3.80785,-1.43093,3.80785,-1315.26,10,71,78,190,197,1316
0,0,0,0,0,0,0,0,0,0,0,0,0,0,0,0,0,0,0,0,10,68,69,76,342,1317
5.82718,0.00193928,-0.00119567,0.000997257,-0.000359842,0.000997257,-0.000648278,0.000727711,-0.000359842,0.000727711,0.000888106,-97.6169,1.99484,-0.728178,1.99484,-96.5151,1.46283,-0.728178,1.46283,-93.447,10,69,76,79,342,1318
4.11104,0.00136674,0,0.000645377,0,0.000645377,-0.00157807,-0.000392895,0,-0.000392895,0,-156.587,1.29212,-0.00101694,1.29212,-159.756,-0.786618,-0.00101694,-0.786618,-156.588,10,76,79,194,342,1319
3.97569,0.00132593,0,0,0.000446693,0,0,0.00104187,0.000446693,0.00104187,0.000317156,31.1333,0.00186061,0.893199,0.00186061,31.1369,2.0833,0.893199,2.0833,31.7614,10,131,135,137,347,1320
8.25172,0.00274662,0.000317217,-0.00106076,0.00121138,-0.00106076,-0.00211036,0.000683337,0.00121138,0.000683337,0.000940591,-84.9071,-2.10947,2.42913,-2.10947,-89.7849,1.38711,2.42913,1.38711,-83.6823,10,134,136,137,351,1321
4.13644,0.0013744,0,-0.000411647,0,-0.000411647,-0.00191803,-0.000144929,0,-0.000144929,0,-190.286,-0.824349,0.000239405,-0.824349,-194.136,-0.29023,0.000239405,-0.29023,-190.287,10,132,137,203,347,1322
9.77023,0.00325066,0.000996568,0.000942466,-0.00142128,0.000942466,-0.00276434,0.000827187,-0.00142128,0.000827187,0.00066188,-109.097,1.86799,-2.84704,1.86799,-116.647,1.6752,-2.84704,1.6752,-109.789,10,70,77,79,352,1323
0.71233,0.000237364,0,0,0.000168504,0,0,-2.12488e-05,0.000168504,-2.12488e-05,-0.000200583,-19.8673,-1.43268e-05,0.337053,-1.43268e-05,-19.8674,-0.0425033,0.337053,-0.0425033,-20.2688,10,69,70,342,352,1324
4.11104,0.00136674,0,0.000645377,0,0.000645377,-0.00157807,-0.000392895,0,-0.000392895,0,-156.587,1.29212,-0.00101694,1.29212,-159.756,-0.786618,-0.00101694,-0.786618,-156.588,10,75,76,79,195,1325
0.88688,0.000295604,-0.000257573,-3.72534e-05,-9.21328e-05,-3.72534e-05,1.3364e-05,5.42959e-05,-9.21328e-05,5.42959e-05,0.000198957,-5.00819,-0.0745755,-0.184511,-0.0745755,-4.46639,0.108565,-0.184511,0.108565,-4.09525,10,194,197,199,352,1326
14.9075,0.00495106,0.00299485,0.000662111,0.000411404,0.000662111,-0.00464564,-0.0017743,0.000411404,-0.0017743,-0.000503117,-211.043,1.26434,0.802831,1.26434,-226.401,-3.56885,0.802831,-3.56885,-218.081,10,77,197,199,352,1327
4.13644,0.0013744,0,-0.000411647,0,-0.000411647,-0.00191803,-0.000144929,0,-0.000144929,0,-190.286,-0.824349,0.000239405,-0.824349,-194.136,-0.29023,0.000239405,-0.29023,-190.287,10,132,137,202,203,1328
4.13644,0.0013744,0,-0.000411647,0,-0.000411647,-0.00191803,-0.000144929,0,-0.000144929,0,-190.286,-0.824349,0.000239405,-0.824349,-194.136,-0.29023,0.000239405,-0.29023,-190.287,10,92,132,137,202,1329
13.7698,0.00456091,0.00138013,-0.00138351,-0.000173214,-0.00138351,-0.00482826,-0.00183472,-0.000173214,-0.00183472,-0.000322189,-374.055,-2.73735,-0.332491,-2.73735,-386.592,-3.69423,-0.332491,-3.69423,-377.501,10,136,137,207,351,1330
14.1687,0.00469417,0.00197275,0.00139394,3.97564e-05,0.00139394,-0.00503864,-0.0014052,3.97564e-05,-0.0014052,-0.000557266,-358.442,2.75222,0.0644576,2.75222,-372.59,-2.83025,0.0644576,-2.83025,-363.552,10,77,79,199,352,1331
0.00290501,9.68335e-07,0,0,7.9248e-10,0,0,5.10521e-07,7.9248e-10,5.10521e-07,-1.15233e-06,-0.114081,1.61832e-12,1.58496e-06,1.61832e-12,-0.114081,0.00102104,1.58496e-06,0.00102104,-0.116386,10,72,133,191,348,1332
15.2919,0.0050774,0.0029902,-0.000695654,-0.000225737,-0.000695654,-0.0046481,-0.00205019,-0.000225737,-0.00205019,-0.000648172,-226.33,-1.32929,-0.426469,-1.32929,-241.689,-4.12129,-0.426469,-4.12129,-233.65,10,136,205,207,351,1333
14.537,0.00483728,0.00330621,0.000440529,-0.00103518,0.000440529,-0.00295012,-0.00238943,-0.00103518,-0.00238943,-0.00136041,-96.338,0.936103,-2.03555,0.936103,-108.858,-4.79562,-2.03555,-4.79562,-105.714,10,45,46,136,207,1334
12.7946,0.00430497,0.00437952,1.32854e-05,0.00265576,1.32854e-05,-0.000225336,-0.00119775,0.00265576,-0.00119775,0.0015012,564.776,0.0344088,5.2735,0.0344088,555.672,-2.371,5.2735,-2.371,559.106,10,137,138,202,207,1335
1.02018,0.000339993,-0.0002376,0.000125739,0.000123707,0.000125739,-5.76392e-05,-0.000112909,0.000123707,-0.000112909,0.0001752,-12.3769,0.251421,0.247709,0.251421,-12.0169,-0.225981,0.247709,-0.225981,-11.5514,10,204,205,206,351,1336
15.3811,0.0051761,0.00412501,-0.000723604,-0.00367312,-0.000723604,-0.000423001,-0.000944643,-0.00367312,-0.000944643,0.00206422,573.948,-1.45384,-7.2924,-1.45384,564.994,-1.85526,-7.2924,-1.85526,569.967,10,79,80,195,199,1337
4.11104,0.00136674,0,0.000645377,0,0.000645377,-0.00157807,-0.000392895,0,-0.000392895,0,-156.587,1.29212,-0.00101694,1.29212,-159.756,-0.786618,-0.00101694,-0.786618,-156.588,10,76,79,194,195,1338
0.00273761,9.12536e-07,2.41503e-07,2.48449e-09,-2.71567e-07,2.48449e-09,-5.95908e-08,4.59332e-07,-2.71567e-07,4.59332e-07,-8.84446e-07,-0.0690679,4.96877e-06,-0.000543134,4.96877e-06,-0.0696701,0.000918665,-0.000543134,0.000918665,-0.0713198,10,191,198,344,350,1339
0.0027258,9.08598e-07,2.62409e-07,7.23081e-08,-3.32224e-07,7.23081e-08,-1.08709e-07,4.79691e-07,-3.32224e-07,4.79691e-07,-7.69953e-07,-0.0604844,0.000144616,-0.000664449,0.000144616,-0.0612266,0.000959383,-0.000664449,0.000959383,-0.0625491,10,71,191,197,198,1340
0.00311914,1.03971e-06,4.06087e-07,6.67868e-08,-2.74252e-07,6.67868e-08,-4.39302e-07,5.94915e-07,-2.74252e-07,5.94915e-07,-7.88262e-07,-0.0805143,0.000133574,-0.000548504,0.000133574,-0.082205,0.00118983,-0.000548504,0.00118983,-0.082903,10,71,190,191,197,1341
0.00214812,7.16039e-07,2.73173e-07,2.10076e-08,1.41734e-07,2.10076e-08,-6.5656e-07,3.68354e-07,1.41734e-07,3.68354e-07,-2.3503e-10,-0.0374323,4.20152e-05,0.000283467,4.20152e-05,-0.0392918,0.000736708,0.000283467,0.000736708,-0.0379792,10,191,192,206,345,1342
0.00323908,1.07969e-06,3.32546e-07,-1.92698e-07,1.46008e-07,-1.92698e-07,1.05593e-07,4.42307e-07,1.46008e-07,4.42307e-07,-1.13075e-06,-0.0679037,-0.000385396,0.000292017,-0.000385396,-0.0683576,0.000884614,0.000292017,0.000884614,-0.0708303,10,191,206,345,348,1343
7.62977,0.00254724,2.01366e-05,0.000768997,-0.000194118,0.000768997,-0.000819306,-0.00158889,-0.000194118,-0.00158889,0.00174742,92.9221,1.53407,-0.390607,1.53407,91.2374,-3.16896,-0.390607,-3.16896,96.3739,10,75,79,80,195,1344
0.00307388,1.02463e-06,2.62115e-07,-3.03146e-08,2.38658e-07,-3.03146e-08,-3.60526e-07,6.72156e-07,2.38658e-07,6.72156e-07,-7.85693e-07,-0.0870023,-6.0629e-05,0.000477317,-6.0629e-05,-0.0882475,0.00134431,0.000477317,0.00134431,-0.0890979,10,133,190,191,206,1345
0.793705,0.000264563,-0.000211528,-2.08408e-05,-9.87824e-05,-2.08408e-05,8.29248e-06,4.18623e-05,-9.87824e-05,4.18623e-05,0.000190633,-1.68104,-0.0417225,-0.197753,-0.0417225,-1.24149,0.0837075,-0.197753,0.0837075,-0.876887,10,193,197,198,352,1346
0.00227448,7.58159e-07,0,0,1.79207e-07,0,0,3.83036e-07,1.79207e-07,3.83036e-07,-8.69953e-07,-0.0861254,2.74571e-10,0.000358414,2.74571e-10,-0.0861254,0.000766072,0.000358414,0.000766072,-0.0878653,10,133,206,348,349,1347
0.00217037,7.23455e-07,2.63518e-07,-5.17964e-08,-1.24322e-07,-5.17964e-08,-6.46151e-07,3.98015e-07,-1.24322e-07,3.98015e-07,-2.59851e-08,-0.0399262,-0.000103593,-0.000248645,-0.000103593,-0.0417456,0.000796029,-0.000248645,0.000796029,-0.0405053,10,191,192,198,344,1348
14.2185,0.00478557,0.00493407,0.00247539,0.00189255,0.00247539,0.000190103,0.0008458,0.00189255,0.0008458,0.000724708,584.3,4.93749,3.7382,4.93749,574.972,1.68905,3.7382,1.68905,575.992,10,134,136,205,351,1349
0.00227448,7.58159e-07,0,-6.61744e-24,1.79207e-07,-6.61744e-24,0,3.83036e-07,1.79207e-07,3.83036e-07,-8.69953e-07,-0.0861254,2.74571e-10,0.000358414,2.74571e-10,-0.0861254,0.000766072,0.000358414,0.000766072,-0.0878653,10,206,345,348,349,1350
0.690056,0.000229939,0,0.000142436,0,0.000142436,-0.000209087,6.92345e-05,0,6.92345e-05,0,-20.7088,0.284911,3.94596e-05,0.284911,-21.1273,0.138488,3.94596e-05,0.138488,-20.7089,10,203,204,346,351,1351
3.85551,0.00128528,0.000594893,0.00062307,-0.000205644,0.00062307,-0.000323403,-0.00074574,-0.000205644,-0.00074574,-0.000217139,6.32195,1.24833,-0.408574,1.24833,4.49107,-1.49129,-0.408574,-1.49129,4.69717,10,137,202,203,207,1352
3.99201,0.00133083,0.000931214,-0.000460465,0.000202241,-0.000460465,-0.000265889,-0.00065868,0.000202241,-0.00065868,-0.000589216,9.13147,-0.923663,0.400717,-0.923663,6.74083,-1.31642,0.400717,-1.31642,6.08961,10,79,194,195,199,1353
15.9512,0.00537358,0.00526966,0.00323139,0.00132502,0.00323139,0.00111106,0.00133525,0.00132502,0.00133525,1.89733e-05,638.403,6.41915,2.59475,6.41915,630.228,2.63687,2.59475,2.63687,628.019,10,28,29,74,196,1354
16.445,0.00554323,0.00563219,0.00341629,0.0011178,0.00341629,0.00111287,0.00112321,0.0011178,0.00112321,1.51291e-05,674.376,6.78215,2.18617,6.78215,665.501,2.21685,2.18617,2.21685,663.284,10,29,74,196,200,1355
0.00270736,9.02452e-07,0,-7.22487e-07,1.05879e-22,-7.22487e-07,-4.73735e-07,1.18396e-07,1.05879e-22,1.18396e-07,0,-0.0468999,-0.00144498,-3.42159e-10,-0.00144498,-0.0478474,0.000236792,-3.42159e-10,0.000236792,-0.0468999,10,48,179,201,338,1356
17.4226,0.00585729,0.00545939,-0.00307728,-0.00147081,-0.00307728,-1.60445e-05,0.00190491,-0.00147081,0.00190491,-0.000265364,517.483,-6.14828,-2.87185,-6.14828,506.704,3.77376,-2.87185,3.77376,506.133,10,91,201,202,208,1357
32.4063,0.0105801,0.00205042,0.00106237,0.00061322,0.00106237,-0.0144318,0.00107524,0.00061322,0.00107524,0.000144251,-1229.31,2.35974,1.23456,2.35974,-1262.9,2.25585,1.23456,2.25585,-1233.18,10,133,134,139,205,1358
14.0376,0.0046737,0.00325002,-0.00039703,0.00118227,-0.00039703,-0.0028623,-0.00222759,0.00118227,-0.00222759,-0.00106102,-63.4288,-0.845729,2.33341,-0.845729,-75.6557,-4.47083,2.33341,-4.47083,-72.0891,10,31,77,197,199,1359
1.05071,0.000350184,-0.000204204,0.000126355,0.000147065,0.000126355,-7.6808e-05,-0.000117965,0.000147065,-0.000117965,0.000189968,-9.44031,0.252636,0.294417,0.252636,-9.18552,-0.236112,0.294417,-0.236112,-8.65221,10,203,204,205,351,1360
0.00190415,6.34716e-07,0,-1.52555e-07,0,-1.52555e-07,-6.52141e-07,3.70287e-07,0,3.70287e-07,0,-0.0645621,-0.000305111,-2.25957e-10,-0.000305111,-0.0658663,0.000740575,-2.25957e-10,0.000740575,-0.0645621,10,204,206,345,346,1361
0,0,0,0,0,0,0,0,0,0,0,0,0,0,0,0,0,0,0,0,10,193,343,344,350,1362
0.00183452,6.11505e-07,0,-5.09134e-10,-1.03398e-25,-5.09134e-10,-6.55975e-07,3.70161e-07,-1.03398e-25,3.70161e-07,0,-0.0649416,-1.01827e-06,-7.53847e-13,-1.01827e-06,-0.0662535,0.000740323,-7.53847e-13,0.000740323,-0.0649415,10,191,192,344,345,1363
1.06588,0.000355414,0.000211462,0.000217567,-0.00010897,0.000217567,-5.92853e-05,-0.000130533,-0.00010897,-0.000130533,5.38558e-05,20.7999,0.434818,-0.217996,0.434818,20.2581,-0.260897,-0.217996,-0.260897,20.4847,10,70,71,197,352,1364
0.00190415,6.34716e-07,0,-1.52555e-07,0,-1.52555e-07,-6.52141e-07,3.70287e-07,0,3.70287e-07,0,-0.0645621,-0.000305111,-2.25957e-10,-0.000305111,-0.0658663,0.000740575,-2.25957e-10,0.000740575,-0.0645621,10,192,204,206,345,1365
0.690056,0.000229939,0,0.000142436,0,0.000142436,-0.000209087,6.92345e-05,0,6.92345e-05,0,-20.7088,0.284911,3.94596e-05,0.284911,-21.1273,0.138488,3.94596e-05,0.138488,-20.7089,10,203,346,347,351,1366
19.1475,0.00640773,0.00595299,0.00281289,0.000376309,0.00281289,-0.000439667,-0.00107776,0.000376309,-0.00107776,-0.00308172,246.286,5.61691,0.705712,5.61691,233.575,-2.16389,0.705712,-2.16389,228.301,10,29,74,80,200,1367
15.8926,0.00528964,0.0036923,-0.000345428,-0.00190521,-0.000345428,-0.000722429,-0.00172512,-0.00190521,-0.00172512,-0.00382192,-81.2057,-0.722967,-3.8848,-0.722967,-90.0143,-3.44887,-3.8848,-3.44887,-96.186,10,29,80,199,200,1368
7.10985,0.00237391,0.000103159,-0.000854406,0.00046043,-0.000854406,-0.000398004,-0.00158702,0.00046043,-0.00158702,0.00130499,99.3392,-1.70638,0.921637,-1.70638,98.3349,-3.16827,0.921637,-3.16827,101.735,10,92,137,138,202,1369
13.6914,0.00460683,0.00340888,0.00284027,0.00154922,0.00284027,0.00224256,0.0015789,0.00154922,0.0015789,2.3784e-05,564.435,5.63845,3.0485,5.63845,562.139,3.11483,3.0485,3.11483,557.707,10,28,74,196,341,1370
0.0027559,9.18633e-07,0,7.3105e-07,1.12104e-44,7.3105e-07,-5.18407e-07,9.43349e-08,1.12104e-44,9.43349e-08,0,-0.0513224,0.0014621,2.75854e-10,0.0014621,-0.0523592,0.00018867,2.75854e-10,0.00018867,-0.0513224,10,28,171,196,341,1371
18.1191,0.00611288,0,-0.00319186,2.43945e-19,-0.00319186,0.00730083,-0.000264793,2.43945e-19,-0.000264793,0,715.61,-6.35304,0.00334026,-6.35304,729.956,-0.527041,0.00334026,-0.527041,715.57,10,91,201,202,339,1372
18.1821,0.00600987,0.000561991,0.00229417,0.00203648,0.00229417,-0.0059041,-0.00204412,0.00203648,-0.00204412,0.000352556,-499.044,4.5702,4.10584,4.5702,-512.135,-4.17565,4.10584,-4.17565,-499.547,10,91,92,202,208,1373
18.1191,0.00611288,0,-0.00319186,1.01644e-20,-0.00319186,0.00730083,-0.000264793,1.01644e-20,-0.000264793,0,715.61,-6.35304,0.00334026,-6.35304,729.956,-0.527041,0.00334026,-0.527041,715.57,10,91,92,202,339,1374
18.1852,0.00613257,0,0.0034172,0,0.0034172,0.00704177,1.59275e-05,0,1.59275e-05,0,690.05,6.80271,0.000215195,6.80271,703.878,0.0317072,0.000215195,0.0317072,690.004,10,74,195,196,340,1375
1.1832,0.000394241,0,0,-0.00025078,0,0,0.000184128,-0.00025078,0.000184128,-0.000243572,-24.1386,-0.000184777,-0.501641,-0.000184777,-24.1387,0.368316,-0.501641,0.368316,-24.6266,10,133,134,349,351,1376
0.00376686,1.25562e-06,-3.83246e-07,5.65366e-07,-6.55599e-07,5.65366e-07,-4.59438e-07,6.1964e-07,-6.55599e-07,6.1964e-07,-7.99128e-07,-0.163306,0.00113074,-0.0013112,0.00113074,-0.163459,0.00123928,-0.0013112,0.00123928,-0.164138,10,193,198,344,350,1377
0.385655,0.000128557,0,-9.49189e-05,0,-9.49189e-05,2.39637e-05,5.65164e-05,0,5.65164e-05,0,2.36996,-0.189835,-2.1457e-05,-0.189835,2.4178,0.113031,-2.1457e-05,0.113031,2.36993,10,193,194,343,352,1378
18.1852,0.00613257,0,0.0034172,-2.15146e-19,0.0034172,0.00704177,1.59275e-05,-2.15146e-19,1.59275e-05,0,690.05,6.80271,0.000215195,6.80271,703.878,0.0317072,0.000215195,0.0317072,690.004,10,74,196,340,341,1379
1.63277,0.000544917,0.000259873,-0.000379009,0.000119789,-0.000379009,0.000415575,-0.000178403,0.000119789,-0.000178403,5.40945e-05,72.6826,-0.757131,0.23943,-0.757131,72.993,-0.356403,0.23943,-0.356403,72.2714,10,133,134,205,351,1380
17.6194,0.00590869,0.00570133,-0.00311945,-0.00057757,-0.00311945,-4.05316e-05,-0.000392569,-0.00057757,-0.000392569,-0.00198321,369.792,-6.21935,-1.11112,-6.21935,358.411,-0.795326,-1.11112,-0.795326,354.527,10,47,91,138,208,1381
18.1191,0.00611288,0,-0.00319186,2.1684e-19,-0.00319186,0.00730083,-0.000264793,2.1684e-19,-0.000264793,0,715.61,-6.35304,0.00334026,-6.35304,729.956,-0.527041,0.00334026,-0.527041,715.57,10,91,201,338,339,1382
16.0391,0.00533528,0.00355635,-8.86299e-05,-0.00180048,-8.86299e-05,-0.000959774,-0.00208263,-0.00180048,-0.00208263,-0.00379969,-116.323,-0.214478,-3.67624,-0.214478,-125.35,-4.17111,-3.67624,-4.17111,-130.999,10,29,30,80,199,1383
5.11981,0.00170183,-0.000166342,-0.000791654,-0.000677585,-0.000791654,-0.000332622,-0.000890789,-0.000677585,-0.000890789,-0.00117563,-166.639,-1.58744,-1.35557,-1.58744,-166.981,-1.78949,-1.35557,-1.78949,-168.666,10,92,138,202,208,1384
16.3002,0.00548758,0.00530414,-0.00339501,-0.00096039,-0.00339501,0.00089408,0.00129407,-0.00096039,0.00129407,-0.000187168,599.962,-6.75163,-1.87106,-6.75163,591.301,2.55525,-1.87106,2.55525,589.105,10,48,91,201,208,1385
17.7932,0.00598863,0.00584673,0.00296797,0.00182931,0.00296797,-1.548e-05,0.0018371,0.00182931,0.0018371,2.96952e-05,585.392,5.92634,3.58135,5.92634,573.851,3.63921,3.58135,3.63921,573.866,10,74,195,196,200,1386
0.00227448,7.58159e-07,0,0,1.79207e-07,0,0,3.83036e-07,1.79207e-07,3.83036e-07,-8.69953e-07,-0.0861254,2.74571e-10,0.000358414,2.74571e-10,-0.0861254,0.000766072,0.000358414,0.000766072,-0.0878653,10,206,345,346,349,1387
0.00290501,9.68335e-07,0,0,7.9248e-10,0,0,5.10521e-07,7.9248e-10,5.10521e-07,-1.15233e-06,-0.114081,1.61832e-12,1.58496e-06,1.61832e-12,-0.114081,0.00102104,1.58496e-06,0.00102104,-0.116386,10,71,191,348,350,1388
0.0026904,8.968e-07,2.59604e-07,5.68363e-08,-2.95867e-07,5.68363e-08,-9.11874e-09,4.14281e-07,-2.95867e-07,4.14281e-07,-8.58736e-07,-0.0596977,0.000113672,-0.000591735,0.000113672,-0.0602352,0.000828562,-0.000591735,0.000828562,-0.0619344,10,71,191,198,350,1389
3.91535,0.00130727,0.00113156,-0.000483064,-0.000609321,-0.000483064,-0.000460469,0.00020835,-0.000609321,0.00020835,0.000322813,100.368,-0.9673,-1.21609,-0.9673,97.1921,0.417561,-1.21609,0.417561,98.7542,10,79,194,342,352,1390
0.00290501,9.68335e-07,0,5.29654e-23,7.9248e-10,5.29654e-23,0,5.10521e-07,7.9248e-10,5.10521e-07,-1.15233e-06,-0.114081,1.61832e-12,1.58496e-06,1.61832e-12,-0.114081,0.00102104,1.58496e-06,0.00102104,-0.116386,10,191,344,348,350,1391
0.71233,0.000237364,0,0,0.000168504,0,0,-2.12488e-05,0.000168504,-2.12488e-05,-0.000200583,-19.8673,-1.43268e-05,0.337053,-1.43268e-05,-19.8674,-0.0425033,0.337053,-0.0425033,-20.2688,10,70,343,350,352,1392
0.00202527,6.75088e-07,0,1.46164e-07,0,1.46164e-07,-7.20251e-07,3.84088e-07,0,3.84088e-07,0,-0.0713049,0.000292328,2.2456e-10,0.000292328,-0.0727454,0.000768177,2.2456e-10,0.000768177,-0.0713049,10,192,193,198,344,1393
0.816995,0.000272228,-0.000309033,9.91946e-05,4.97511e-06,9.91946e-05,-2.04071e-05,-3.54898e-05,4.97511e-06,-3.54898e-05,0.000101539,-23.1932,0.198512,0.00979183,0.198512,-22.6158,-0.0709575,0.00979183,-0.0709575,-22.3718,10,71,197,198,352,1394
0.00339715,1.13238e-06,2.49386e-07,5.04808e-08,7.37109e-08,5.04808e-08,-1.99473e-07,6.39384e-07,7.37109e-08,6.39384e-07,-1.1931e-06,-0.112677,0.000100962,0.000147423,0.000100962,-0.113574,0.00127877,0.000147423,0.00127877,-0.115562,10,133,191,206,348,1395
13.4163,0.00451131,0.00318166,-0.00283094,-0.00130811,-0.00283094,0.00232564,0.00154666,-0.00130811,0.00154666,-0.000227909,525.063,-5.62313,-2.57097,-5.62313,523.385,3.05102,-2.57097,3.05102,518.285,10,48,91,201,338,1396
1269.26,0.00598473,0.000191593,0.00315312,-0.00378301,0.00315312,0.00178713,-0.00139223,-0.00378301,-0.00139223,0.000666789,1983.13,446.794,-535.322,446.794,2202.88,-194.797,-535.322,-194.797,2044.24,10,354,376,385,691,1397
303.735,0.00142972,0.000756983,-0.000407902,0.0010767,-0.000407902,9.0205e-05,-0.000256884,0.0010767,-0.000256884,0.000724917,1290.3,-57.7756,152.483,-57.7756,1196.18,-36.4773,152.483,-36.4773,1286.27,10,353,542,544,691,1398
0,0,0,0,0,0,0,0,0,0,0,0,0,0,0,0,0,0,0,0,10,353,542,543,544,1399
795.015,0.00374622,0.00318296,0.00124563,-0.00176105,0.00124563,-0.00164868,-0.000186704,-0.00176105,-0.000186704,0.000695551,2119.16,172.628,-247.668,172.628,1429.6,-24.757,-247.668,-24.757,1761.25,10,354,385,576,691,1400
933.186,0.00438293,0.000756683,0.00294504,-0.00228879,0.00294504,-0.000337828,0.0003923,-0.00228879,0.0003923,-0.000147065,295.124,417.283,-324.017,417.283,130.931,58.5961,-324.017,58.5961,158.435,10,542,544,576,691,1401
1254.47,0.00593767,0.00680998,-0.000949005,0.0013183,-0.000949005,-0.00287571,-0.000210079,0.0013183,-0.000210079,0.00100881,4645.2,-125.795,183.084,-125.795,3276.79,-29.0851,183.084,-29.0851,3824.14,10,520,583,687,692,1402
1229.9,0.00572285,-0.00596149,0.00145778,0.00271782,0.00145778,-0.000355152,-0.0011727,0.00271782,-0.0011727,0.00101968,-4894.88,208.307,391.202,208.307,-4092.7,-168.568,391.202,-168.568,-3897.56,10,582,583,687,692,1403
333.414,0.00156932,0,0,0.000750981,0,0,-0.000704998,0.000750981,-0.000704998,0.00153567,1155.55,-0.149978,106.531,-0.149978,1155.53,-100.008,106.531,-100.008,1372.59,10,495,496,582,692,1404
918.668,0.00433704,0.00530257,-0.000467964,-1.17537e-05,-0.000467964,-0.00184803,-8.76309e-05,-1.17537e-05,-8.76309e-05,-8.75314e-05,3265.76,-58.633,-4.23163,-58.633,2254.19,-12.3795,-4.23163,-12.3795,2503.71,10,511,520,687,692,1405
711.286,0.00330832,-0.00469592,-0.000615702,0.0010556,-0.000615702,-0.00110361,0.00049048,0.0010556,0.00049048,0.000222081,-4898.37,-90.3292,154.786,-90.3292,-4386.89,71.4211,154.786,71.4211,-4197.59,10,496,511,520,692,1406
1006.53,0.00468494,-0.00428154,0.00252914,-0.00214392,0.00252914,-0.000961972,0.00047237,-0.00214392,0.00047237,0.000111656,-4519.76,361.854,-305.541,361.854,-4040.8,66.2875,-305.541,66.2875,-3886.58,10,495,496,511,692,1407
2532.2,0.0119232,0.00767205,-0.00740709,-0.000855293,-0.00740709,-0.00629595,0.00149855,-0.000855293,0.00149855,0.000596268,2417.03,-1034.86,-122.733,-1034.86,412.093,215.295,-122.733,215.295,1401.14,10,521,522,684,689,1408
1036.3,0.00489099,0.00159275,0.00314467,-0.00115283,0.00314467,-0.00050782,0.00218959,-0.00115283,0.00218959,0.0021166,2615.31,440.99,-162.186,440.99,2310.36,312.959,-162.186,312.959,2681.98,10,381,572,576,577,1409
3793.72,0.0177533,0.00672416,0.0113374,0.00133665,0.0113374,-0.00967341,0.00599379,0.00133665,0.00599379,0.00148291,-508.15,1590.66,201.019,1590.66,-2889.73,865.571,201.019,865.571,-1275.95,10,382,383,573,578,1410
4115.37,0.0194559,0.00918255,-0.0142224,0.00060837,-0.0142224,-0.00738873,0.0033447,0.00060837,0.0033447,0.00295602,4453.19,-1983.59,83.8451,-1983.59,2054.79,488.68,83.8451,488.68,3537.9,10,517,518,522,685,1411
8305.78,0.0384878,0.00827788,0.0287202,0.00674072,0.0287202,-0.0195962,0.00174385,0.00674072,0.00174385,0.00575307,-4752.4,4095.35,950.324,4095.35,-8923.49,268.158,950.324,268.158,-5195.75,10,368,369,384,575,1412
5056.91,0.0236527,0.00197536,0.0183369,-0.000686207,0.0183369,-0.00974862,0.0036578,-0.000686207,0.0036578,0.00637929,-1402.8,2591.45,-111.64,2591.45,-3168.1,560.518,-111.64,560.518,-833.395,10,383,384,574,579,1413
5892.92,0.0274508,0.000442396,0.020091,-0.00503777,0.020091,-0.0114649,0.00665854,-0.00503777,0.00665854,0.00749088,-3473.05,2853.44,-722.635,2853.44,-5281.59,979.929,-722.635,979.929,-2533.49,10,379,383,384,574,1414
6220.89,0.029479,0.012213,0.0215097,0.0070651,0.0215097,-0.0107485,-8.34079e-05,0.0070651,-8.34079e-05,0.00543153,5956.47,2981.5,985.248,2981.5,2554.61,-17.8959,985.248,-17.8959,4917.95,10,369,384,575,579,1415
2459.4,0.0114983,0.00391761,0.00677176,-0.00421913,0.00677176,-0.00708789,0.00179484,-0.00421913,0.00179484,0.000863942,-1319.05,949.982,-598.066,949.982,-2926.59,269.145,-598.066,269.145,-1787.02,10,381,382,386,577,1416
3071.2,0.0144395,0.00909893,0.00861758,-2.8344e-05,0.00861758,-0.00821207,0.00268059,-2.8344e-05,0.00268059,0.000288401,1952.88,1192.58,5.92539,1192.58,-555.141,386.122,5.92539,386.122,676.614,10,382,387,577,578,1417
9459.99,0.0437602,0.00834961,0.0307679,-0.0079947,0.0307679,-0.0222123,0.0108726,-0.0079947,0.0108726,0.00796002,-5528.5,4365.12,-1171.14,4365.12,-10111.4,1645.94,-1171.14,1645.94,-5738,10,379,380,384,575,1418
6461.25,0.0306581,0.0121989,0.0229962,-0.00353462,0.0229962,-0.0115508,0.00266079,-0.00353462,0.00266079,0.0071498,6566.69,3169.03,-502.366,3169.03,3021.89,433.587,-502.366,433.587,5729.28,10,384,574,575,579,1419
4508.85,0.0212105,0.0130865,0.0125912,-0.00163244,0.0125912,-0.0133027,0.000712842,-0.00163244,0.000712842,0.00208699,2770.29,1734.38,-233.086,1734.38,-1060.6,116.543,-233.086,116.543,1163.07,10,383,388,578,579,1420
6318.45,0.0290933,0.000675122,-0.020141,0.00783549,-0.020141,-0.0119146,0.0106698,0.00783549,0.0106698,0.00092778,-8690.12,-2885.61,1135.48,-2885.61,-10611.4,1579.55,1135.48,1579.55,-8744.58,10,518,672,673,685,1421
4286.13,0.0202366,0.00871381,0.00638428,0.00257238,0.00638428,-0.00645305,-0.0142171,0.00257238,-0.0142171,0.00175107,3754.91,898.529,362.921,898.529,1612.76,-2008.53,362.921,-2008.53,2781.45,10,604,605,608,693,1422
6512.81,0.0298068,0.0143654,-0.00742461,0.000420998,-0.00742461,0.00204697,-0.00891933,0.000420998,-0.00891933,-0.0302728,-9505.54,-1091.28,-13.5717,-1091.28,-11206.6,-1120.98,-13.5717,-1120.98,-16092.2,10,400,452,453,465,1423
4461.17,0.0210777,0.00855088,0.00498716,0.00338293,0.00498716,-0.013444,-0.0113735,0.00338293,-0.0113735,0.00937521,4040.59,718.737,477.92,718.737,926.297,-1581.08,477.92,-1581.08,4184.49,10,402,423,605,609,1424
4460.99,0.0211305,0.0100265,0.0112951,0.0034391,0.0112951,-0.00669057,-0.011192,0.0034391,-0.011192,0.00267852,5397.75,1592.34,473.458,1592.34,3040.56,-1573.39,473.458,-1573.39,4384.58,10,418,419,599,604,1425
7061.58,0.0330793,0.0109273,-0.00664733,-0.021969,-0.00664733,-0.0106774,-0.0133104,-0.021969,-0.0133104,6.16725e-05,419.279,-927.591,-3222.75,-927.591,-2400.95,-1835.27,-3222.75,-1835.27,-1228.08,10,483,484,664,668,1426
6118.17,0.0291133,0.0192769,-0.00115202,-0.016337,-0.00115202,-0.0087794,-0.0125336,-0.016337,-0.0125336,-0.00113413,8774.53,-177.588,-2322.95,-177.588,4957.62,-1720.77,-2322.95,-1720.77,5708.82,10,451,483,664,668,1427
11147.4,0.0507369,0.0204779,0.0103889,0.0266457,0.0103889,-0.0426383,0.00125215,0.0266457,0.00125215,0.00751548,-11231.4,1688.72,3932.99,1688.72,-20359.1,47.2901,3932.99,47.2901,-13185.5,10,434,616,620,621,1428
10311.3,0.0489869,0.0140654,0.0254812,0.0203311,0.0254812,-0.0201942,-0.0176187,0.0203311,-0.0176187,0.0169326,7102.37,3635.8,2882.38,3635.8,2455.64,-2440.82,2882.38,-2440.82,7549.2,10,414,430,598,615,1429
10115.6,0.0466656,0.000825654,0.00469977,0.0344731,0.00469977,-0.021703,-0.0101523,0.0344731,-0.0101523,0.0136123,-7956.34,624.375,5063.41,624.375,-11083.6,-1451.16,5063.41,-1451.16,-6266,10,435,615,616,620,1430
9047.21,0.0434101,0.00183297,0.012031,0.0300177,0.012031,0.000583041,-0.0177886,0.0300177,-0.0177886,0.0135397,9942.01,1547,4322.23,1547,10064.8,-2352.89,4322.23,-2352.89,11420.4,10,430,435,615,616,1431
6205.09,0.0289566,0.0072559,-0.00745482,0.00243142,-0.00745482,-0.0150647,-0.020336,0.00243142,-0.020336,0.00546676,-1751.91,-1048.58,361.692,-1048.58,-4984.57,-2888.82,361.692,-2888.82,-1975.86,10,476,477,653,657,1432
4998.3,0.0232272,0.00548452,-0.00829822,-0.00246911,-0.00829822,-0.00611336,-0.0170204,-0.00246911,-0.0170204,-0.00467875,-3889.5,-1192.61,-364.101,-1192.61,-5523.64,-2441.47,-364.101,-2441.47,-5364.77,10,471,476,477,653,1433
5461.24,0.0255977,0.00925049,-0.00507668,-6.4638e-05,-0.00507668,-0.00987211,-0.0193374,-6.4638e-05,-0.0193374,0.000636555,531.31,-710.103,1.38433,-710.103,-2199.98,-2750.66,1.38433,-2750.66,-696.349,10,402,454,476,653,1434
8219.96,0.0381666,0.0216836,0.00816094,0.0084894,0.00816094,-0.00836337,-0.0230265,0.0084894,-0.0230265,-0.0177069,-2043.81,1218.04,1305.18,1218.04,-6174.67,-3260.13,1305.18,-3260.13,-7759.31,10,400,401,453,600,1435
6839.54,0.0320093,0.0155542,-0.00115144,-0.00654439,-0.00115144,-0.00103104,-0.0221942,-0.00654439,-0.0221942,-0.0148476,711.979,-153.296,-944.921,-153.296,-1530.15,-3117.21,-944.921,-3117.21,-3742.1,10,401,465,648,653,1436
8348.62,0.0387746,0.0138767,-0.0204324,-0.000701881,-0.0204324,0.000300577,-0.0211535,-0.000701881,-0.0211535,-0.0183718,-3050.74,-2973.81,-234.497,-2973.81,-4775.38,-2944.65,-234.497,-2944.65,-7754.98,10,466,648,652,653,1437
4834.35,0.0227425,0.00373956,0.00262731,0.000595478,0.00262731,-0.0131617,-0.0149176,0.000595478,-0.0149176,0.0114175,1409.19,371.21,86.216,371.21,-1022.73,-2082.68,86.216,-2082.68,2535.64,10,403,423,427,455,1438
5456.36,0.0256195,0.00612607,-0.00494414,0.00214276,-0.00494414,-0.0142935,-0.0173187,0.00214276,-0.0173187,0.00922672,872.555,-705.66,306.132,-705.66,-2043.36,-2446.42,306.132,-2446.42,1329,10,455,476,657,659,1439
9379.32,0.0440073,0.0344065,-0.0167661,0.00924342,-0.0167661,-0.0310451,0.00358384,0.00924342,0.00358384,-0.00083877,4538.98,-2247.58,1278.81,-2247.58,-4938.73,390.361,1278.81,390.361,-488.513,10,398,434,451,621,1440
6647.37,0.0312078,0.00256982,-0.0215952,-0.00700599,-0.0215952,-0.00446142,-0.0140161,-0.00700599,-0.0140161,0.0033652,306.486,-3052.33,-1001.4,-3052.33,-709.452,-2009.89,-1001.4,-2009.89,378.008,10,467,468,646,662,1441
6276.11,0.0292198,-0.00796521,-0.020347,-0.0121526,-0.020347,0.000427476,-0.0064647,-0.0121526,-0.0064647,0.00383311,-5034.21,-2895.51,-1760.96,-2895.51,-3732.76,-914.454,-1760.96,-914.454,-3308.45,10,468,485,486,662,1442
1134.04,0.00533802,0.00215962,-0.00332533,0.00184062,-0.00332533,-0.00159619,0.00179027,0.00184062,0.00179027,0.00104368,1491.31,-467.263,257.981,-467.263,948.224,258.045,257.981,258.045,1321.81,10,516,520,521,683,1443
3224.07,0.0152764,0.010971,-0.00698053,0.000353479,-0.00698053,-0.00819875,-0.00577188,0.000353479,-0.00577188,0.00310787,5719.07,-946.202,65.8891,-946.202,2962.75,-802.555,65.8891,-802.555,4596.76,10,469,470,475,644,1444
3612.84,0.017066,0.00797858,-0.00916635,-0.00140119,-0.00916635,-0.00980654,-0.00613711,-0.00140119,-0.00613711,0.00595106,3907.27,-1269.27,-187.152,-1269.27,1343.02,-863.047,-187.152,-863.047,3598.98,10,469,470,487,660,1445
9090.24,0.0416293,-0.00200117,-0.0038741,0.0357817,-0.0038741,-0.00412863,-0.000488052,0.0357817,-0.000488052,-0.00608738,-11887.7,-343.673,5225.94,-343.673,-11944.8,-329.639,5225.94,-329.639,-12052,10,531,532,677,681,1446
3919.98,0.0185135,0.010971,-0.00740349,-0.000150597,-0.00740349,-0.0123982,-0.00726311,-0.000150597,-0.00726311,0.00551788,4245.22,-999.618,-4.82586,-999.618,887.291,-1020.92,-4.82586,-1020.92,3452.18,10,469,470,644,660,1447
5445.84,0.0259481,0.0108401,0.016291,0.00762828,0.016291,-0.0110205,-0.00523003,0.00762828,-0.00523003,0.0100931,8235.58,2232.91,1049.03,2232.91,5029.88,-733.87,1049.03,-733.87,8073.26,10,596,597,614,694,1448
5260.69,0.0249322,0.00250678,0.0168058,0.000441064,0.0168058,-0.00681378,-0.0102424,0.000441064,-0.0102424,0.0109185,4632.71,2343.36,34.809,2343.36,3200.5,-1433.22,34.809,-1433.22,5786.48,10,415,596,597,694,1449
3937.38,0.0185792,0.00920394,0.00965164,0.000705402,0.00965164,-0.0110011,-0.00707938,0.000705402,-0.00707938,0.00536074,3599.57,1327.68,70.4988,1327.68,662.551,-981.379,70.4988,-981.379,3048.1,10,420,598,602,603,1450
3842.12,0.0178714,0.00258373,-0.0103573,0.00864733,-0.0103573,-0.00568961,0.00634992,0.00864733,0.00634992,-0.00196953,-3805.73,-1465.88,1224.41,-1465.88,-5063.3,934.92,1224.41,934.92,-4532.35,10,517,671,672,684,1451
3049.45,0.0142835,-0.00213979,-0.00325293,0.0100173,-0.00325293,0.00361919,0.00549189,0.0100173,0.00549189,-0.00256154,-1335.85,-449.942,1426.12,-449.942,-545.509,784.216,1426.12,784.216,-1466.86,10,512,526,671,672,1452
2991.37,0.0139343,-0.00520612,-0.0015996,0.0112928,-0.0015996,0.000752211,0.00222194,0.0112928,0.00222194,4.78246e-05,-4295.16,-219.706,1621.32,-219.706,-3453.53,314.547,1621.32,314.547,-3575.39,10,499,585,671,675,1453
3502.99,0.0162207,-0.00579158,-0.00675801,0.0103858,-0.00675801,0.000259234,0.00588021,0.0103858,0.00588021,-0.00232014,-7062.28,-961.443,1501.94,-961.443,-6219.81,855.938,1501.94,855.938,-6628.89,10,512,517,671,672,1454
1844.79,0.00867742,-0.00133544,-0.00355775,0.00583863,-0.00355775,0.0021252,0.00259434,0.00583863,0.00259434,0.000459943,674.951,-499.736,830.542,-499.736,1155.24,370.354,830.542,370.354,902.242,10,498,512,516,671,1455
1841.8,0.00870914,0.000162368,-0.00203179,0.00629744,-0.00203179,0.00367829,0.00306764,0.00629744,0.00306764,0.000578604,3277.38,-281.115,889.231,-281.115,3760.03,433.054,889.231,433.054,3305.06,10,498,499,512,671,1456
3014.83,0.0140245,-0.00618113,0.00163013,-0.0112016,0.00163013,0.000887259,0.00210037,-0.0112016,0.00210037,8.04691e-05,-5050.05,223.838,-1611.27,223.838,-4048.12,297.078,-1611.27,297.078,-4184.81,10,356,377,389,539,1457
3496.98,0.0162123,-0.00437355,0.00620254,-0.010088,0.00620254,-0.000298355,0.00726177,-0.010088,0.00726177,-0.00246415,-6319.71,873.9,-1459.6,873.9,-5747.13,1047.97,-1459.6,1047.97,-6109.65,10,377,378,557,573,1458
1801.64,0.00846923,-0.00210325,0.00359894,-0.00554458,0.00359894,0.00267403,0.00209652,-0.00554458,0.00209652,0.000303733,285.108,505.373,-790.305,505.373,955.808,299.033,-790.305,299.033,602.354,10,377,540,557,572,1459
1848.09,0.0087366,-0.000905053,0.00202291,-0.00609173,0.00202291,0.00461751,0.00280234,-0.00609173,0.00280234,0.000552103,3008.24,279.276,-861.976,279.276,3775.84,394.893,-861.976,394.893,3185.4,10,377,539,540,557,1460
6171.8,0.0286634,-0.00776881,-0.0186414,-0.0119692,-0.0186414,0.000183933,-0.00984897,-0.0119692,-0.00984897,0.00235931,-6107.35,-2653.65,-1749.18,-2653.65,-4880.61,-1407.59,-1749.18,-1407.59,-4648.95,10,467,468,485,662,1461
3363.59,0.0157225,0.00354535,-0.0109972,-0.00161344,-0.0109972,-0.00790293,0.00479325,-0.00161344,0.00479325,0.00210398,-1481.53,-1556.18,-231.586,-1556.18,-3141.46,694.905,-231.586,694.905,-1701.07,10,517,522,684,685,1462
6907.27,0.0328104,0.0112002,-0.0186492,-0.0170734,-0.0186492,-0.00890059,-0.00761775,-0.0170734,-0.00761775,0.0063617,6712.83,-2653.72,-2428.22,-2653.72,4090.11,-1041.58,-2428.22,-1041.58,6095.17,10,484,485,490,662,1463
10879.4,0.051392,-0.00414112,-0.0331399,-0.0239397,-0.0331399,0.00844214,-0.0164114,-0.0239397,-0.0164114,0.00346023,1660.05,-4516.93,-3555.91,-4516.93,4245.18,-2176.11,-3555.91,-2176.11,2975.11,10,484,490,662,667,1464
3217.91,0.0150893,0.00261026,-0.00984257,0.00112922,-0.00984257,-0.00579651,0.00696421,0.00112922,0.00696421,0.00280408,-172.71,-1387.58,154.11,-1387.58,-1407.49,996.073,154.11,996.073,-167.538,10,517,672,684,685,1465
7523.51,0.0350366,-0.00810703,-0.017189,-0.0239414,-0.017189,0.00198883,-0.00370755,-0.0239414,-0.00370755,0.00313657,-5093.55,-2373.89,-3462.92,-2373.89,-3299.29,-410.543,-3462.92,-410.543,-3301.13,10,467,484,662,663,1466
5780.92,0.0270806,0.00948168,0.00859727,0.00247883,0.00859727,-0.00451352,-0.0200359,0.00247883,-0.0200359,-0.00517564,284.267,1221.79,366.508,1221.79,-1656.3,-2853.97,366.508,-2853.97,-1816.46,10,418,604,605,693,1467
7078.68,0.0331101,-0.0176595,-0.022499,-0.00680302,-0.022499,0.0081589,-0.00636257,-0.00680302,-0.00636257,0.00895286,-4440.89,-3107.99,-997.332,-3107.99,-428.531,-871.529,-997.332,-871.529,-487.413,10,444,490,491,666,1468
8884.3,0.0415034,0.00432697,0.0180173,0.0169177,0.0180173,0.00599782,-0.0244335,0.0169177,-0.0244335,-0.0106526,-1819.31,2522.44,2489.11,2522.44,-1361.11,-3429.96,2489.11,-3429.96,-3999.41,10,413,419,598,599,1469
4722.1,0.0221475,0.00744975,0.00691194,-0.00251871,0.00691194,-0.012972,-0.0136315,-0.00251871,-0.0136315,0.00566832,583.218,961.868,-376.358,961.868,-2370.46,-1915.14,-376.358,-1915.14,351.912,10,419,424,607,608,1470
4097.81,0.0191473,0.00171994,0.00671015,0.00116772,0.00671015,-0.00735142,-0.013978,0.00116772,-0.013978,0.00333688,-1932.9,955.696,163.687,955.696,-3243.09,-1989.09,163.687,-1989.09,-1685.41,10,419,604,607,608,1471
7956.08,0.0373584,0.0107995,0.0138749,0.0109534,0.0138749,0.00417984,-0.0242243,0.0109534,-0.0242243,-0.0127446,1458.17,1934.38,1620.73,1934.38,739.38,-3386.17,1620.73,-3386.17,-1968.39,10,412,413,418,599,1472
4798.11,0.0226196,0.00944807,0.0124965,0.00301623,0.0124965,-0.0141628,-0.00659855,0.00301623,-0.00659855,0.00797202,3200.26,1743.57,393.329,1743.57,-222.979,-896.175,393.329,-896.175,2985.08,10,419,420,598,603,1473
7893.71,0.0363255,0.0039298,-0.0169356,-0.0181422,-0.0169356,-0.00699336,-0.0182876,-0.0181422,-0.0182876,-0.00685274,-8650.34,-2437.17,-2702.33,-2437.17,-10002.9,-2607.45,-2702.33,-2607.45,-10229.4,10,466,467,647,652,1474
6113.77,0.0292588,0.0121664,-0.0133543,-0.00483047,-0.0133543,-0.0137002,-0.0140225,-0.00483047,-0.0140225,0.0143808,10292.3,-1887.24,-693.626,-1887.24,6756.64,-1953.68,-693.626,-1953.68,10627.7,10,466,467,472,652,1475
3158.24,0.0148046,0.0023887,-0.00384957,-0.000554696,-0.00384957,-0.0111817,-0.00709478,-0.000554696,-0.00709478,0.00819866,-370.285,-540.52,-67.2603,-540.52,-2340.65,-964.185,-67.2603,-964.185,484.012,10,472,473,478,651,1476
4139.72,0.0196035,0.00918256,-0.0142225,0.000604281,-0.0142225,-0.00745561,0.00360959,0.000604281,0.00360959,0.00403034,5202.19,-1980,84.4253,-1980,2799.01,526.339,84.4253,526.339,4439.01,10,518,522,523,685,1477
7117.47,0.033506,0.000321079,-0.0203774,-0.00818462,-0.0203774,-0.0107476,-0.014457,-0.00818462,-0.014457,0.0137705,1200.45,-2875.03,-1169.79,-2875.03,-377.888,-2059.8,-1169.79,-2059.8,3086.92,10,467,472,651,652,1478
7537.74,0.0355461,0.0076746,0.0274355,0.00571481,0.0274355,-0.0123512,-0.00413842,0.00571481,-0.00413842,0.00926697,3031.16,3871.69,796.202,3871.69,148.871,-580.071,796.202,-580.071,3234.88,10,431,432,597,614,1479
9196.04,0.0428069,0.00432697,0.0181326,0.0170552,0.0181326,-0.0044334,-0.0270918,0.0170552,-0.0270918,-0.00217344,-3436.78,2543.28,2553.03,2543.28,-4389.47,-3855.13,2553.03,-3855.13,-4497.8,10,413,430,598,599,1480
8640.96,0.0387333,-0.00659379,0.0158636,0.0252075,0.0158636,-0.0220922,0.00854042,0.0252075,0.00854042,0.00341676,-22207.2,2411.66,3719.96,2411.66,-24115.2,1392.57,3719.96,1392.57,-20486.2,10,435,615,619,620,1481
4046.59,0.0191451,0.00939054,0.0137654,0.000634084,0.0137654,-0.00721375,0.00385538,0.000634084,0.00385538,0.00300591,4819.15,1918.17,94.8892,1918.17,2421.09,555.18,94.8892,555.18,3888.71,10,383,574,578,579,1482
4089.39,0.019326,0.00938756,0.0138834,-0.000495529,0.0138834,-0.00726751,0.00414487,-0.000495529,0.00414487,0.00240091,4315.75,1935.42,-62.9052,1935.42,1905.09,600.374,-62.9052,600.374,3294.58,10,383,573,574,578,1483
4910.7,0.0228145,0.00419646,-0.0157443,0.00474108,-0.0157443,-0.0144347,0.000866613,0.00474108,0.000866613,0.00475219,-4111.06,-2216.69,694.653,-2216.69,-6911.83,168.975,694.653,168.975,-4112.42,10,523,685,686,690,1484
4888.67,0.0228964,0.00266211,-0.0177423,0.00258276,-0.0177423,-0.00887221,0.00366172,0.00258276,0.00366172,0.00556495,-690.962,-2501.92,379.528,-2501.92,-2431.83,559.537,379.528,559.537,-346.542,10,518,523,685,686,1485
3224.54,0.01504,0.0040065,-0.0106651,0.000184178,-0.0106651,-0.00903555,0.00284654,0.000184178,0.00284654,0.00145268,-2384.65,-1511.15,28.225,-1511.15,-4282.64,419.183,28.225,419.183,-2771.81,10,522,684,685,689,1486
4738.11,0.022164,0.00675968,-0.0142662,-0.00423241,-0.0142662,-0.0139677,-0.00320249,-0.00423241,-0.00320249,0.00577664,-669.43,-2000.99,-593.3,-2000.99,-3715.46,-462.754,-593.3,-462.754,-858.029,10,442,523,641,690,1487
4134.04,0.0195869,0.0117884,-0.0103848,-0.00514843,-0.0103848,-0.011157,-0.00360532,-0.00514843,-0.00360532,0.00544353,5810.44,-1424.54,-712.328,-1424.54,2508.7,-510.207,-712.328,-510.207,4882.78,10,441,442,523,690,1488
3690.55,0.0172342,0.00800448,0.0110026,0.00179723,0.0110026,-0.0109195,0.00284157,0.00179723,0.00284157,0.000160149,-1270.38,1544.76,263.15,1544.76,-4025.78,410.367,263.15,410.367,-2415.28,10,383,387,388,578,1489
4453.24,0.0210524,0.0112148,0.0118902,0.00574959,0.0118902,-0.0125061,-0.00143583,0.00574959,-0.00143583,0.00611532,4728.34,1635.55,799.611,1635.55,1292.45,-200.171,799.611,-200.171,3966.4,10,388,550,551,579,1490
5551.48,0.0260982,0.00766518,0.0188287,0.00554929,0.0188287,-0.0122807,-0.000705554,0.00554929,-0.000705554,0.00645032,1726.95,2630.11,773.569,2630.11,-1262.93,-105.82,773.569,-105.82,1470.22,10,369,551,575,579,1491
5085,0.0237308,0.00596567,0.0156598,0.00496248,0.0156598,-0.015113,-0.00107587,0.00496248,-0.00107587,0.00641802,-1838.49,2201.13,697.992,2201.13,-4964.63,-153.551,697.992,-153.551,-1832.99,10,369,388,551,579,1492
2275.4,0.0106119,-0.00200782,-0.00487613,-0.00061699,-0.00487613,-0.00179003,-0.00768798,-0.00061699,-0.00768798,-1.33027e-05,-3295.24,-698.393,-77.4051,-698.393,-3294.25,-1096.84,-77.4051,-1096.84,-2999.7,10,462,475,479,629,1493
2617.35,0.0123598,0.0078456,-0.00299131,0.00360072,-0.00299131,-0.00588732,-0.00673085,0.00360072,-0.00673085,0.00176828,3743.09,-399.756,520.284,-399.756,1767.63,-933.282,520.284,-933.282,2893.79,10,474,475,479,650,1494
2731.82,0.0127865,0.00246965,-0.00151324,0.00168474,-0.00151324,-0.00921462,-0.00768484,0.00168474,-0.00768484,0.00516655,-1036.86,-198.435,248.01,-198.435,-2734.29,-1065.06,248.01,-1065.06,-622.161,10,473,478,479,651,1495
5504.49,0.0261241,0.00575413,-0.0196652,-0.004347,-0.0196652,-0.00552602,-0.00755848,-0.004347,-0.00755848,0.00731687,5714.78,-2749.38,-599.478,-2749.38,4030.45,-1062.09,-599.478,-1062.09,5888.61,10,468,486,487,661,1496
6017.65,0.0281879,0.00873934,0.01531,0.00298293,0.01531,-0.0142023,-0.0141229,0.00298293,-0.0141229,0.00531636,197.679,2142.05,392.327,2142.05,-3161.19,-2011.95,392.327,-2011.95,-307.078,10,414,415,420,597,1497
9018.2,0.0419442,-0.00729947,0.0341354,0.00719149,0.0341354,-0.00534318,-0.00395313,0.00719149,-0.00395313,0.0097378,-5513.25,4886.67,1047.85,4886.67,-5033.53,-556.978,1047.85,-556.978,-2972.94,10,436,437,614,618,1498
4242.53,0.0200477,0.00586164,0.00960914,0.00426395,0.00960914,-0.00510241,-0.012533,0.00426395,-0.012533,0.00375063,3742.03,1354.41,592.785,1354.41,2171.24,-1764.28,592.785,-1764.28,3459.72,10,419,599,603,604,1499
7979.94,0.0369115,0.0116958,-0.00982732,-0.0161404,-0.00982732,-0.00864017,-0.0227644,-0.0161404,-0.0227644,-0.00984958,-5166.67,-1409.67,-2389.41,-1409.67,-7917.18,-3242.07,-2389.41,-3242.07,-8381.22,10,466,647,648,664,1500
8618.68,0.0378866,-0.0140671,-0.0093454,-0.0265583,-0.0093454,-0.0255318,-0.00896239,-0.0265583,-0.00896239,0.00282892,-32072,-1405.63,-4144.15,-1405.63,-33457.9,-1228.84,-4144.15,-1228.84,-29469.2,10,484,489,490,667,1501
6087.17,0.0288309,0.00465324,-0.0215649,-0.00702611,-0.0215649,-0.00583417,-0.00764331,-0.00702611,-0.00764331,0.00773165,4650.36,-3017.21,-977.688,-3017.21,3039.46,-1090.11,-977.688,-1090.11,5012.83,10,486,487,491,661,1502
8463.79,0.0395117,0.00118499,-0.0313234,-0.00224249,-0.0313234,-0.0122161,-0.00769695,-0.00224249,-0.00769695,0.0100304,-2533.49,-4482.27,-321.932,-4482.27,-4396.52,-1082.7,-321.932,-1082.7,-1244.01,10,444,491,665,666,1503
4809.78,0.0225044,0.00975291,-0.0112726,-0.00179478,-0.0112726,-0.0165778,-0.00702932,-0.00179478,-0.00702932,0.00555523,-140.552,-1550.66,-231.835,-1550.66,-3996.02,-989.672,-231.835,-989.672,-775.155,10,469,644,645,661,1504
6582.45,0.03091,0.00264855,0.01719,0.00818162,0.01719,-0.00262825,-0.018611,0.00818162,-0.018611,0.00156314,417.266,2412.97,1168.84,2412.97,-328.668,-2665.6,1168.84,-2665.6,214.913,10,414,420,597,598,1505
7310.57,0.0337071,-0.00899552,-0.0238894,-0.0129055,-0.0238894,-0.00574377,-0.00744473,-0.0129055,-0.00744473,0.00568425,-9625.45,-3435.68,-1900.81,-3435.68,-9010.38,-1071.73,-1900.81,-1071.73,-7456.78,10,485,490,491,662,1506
2268.57,0.0106886,0.00479789,-0.0021861,0.00220654,-0.0021861,-0.00283181,-0.0078325,0.00220654,-0.0078325,0.000345288,2288.61,-298.855,322.568,-298.855,1182.5,-1102.23,322.568,-1102.23,1672.72,10,479,629,650,654,1507
8942.84,0.0415177,-0.0198567,-0.0218588,0.0227467,-0.0218588,0.00725972,0.00633893,0.0227467,0.00633893,0.0085571,-8185.07,-2979.89,3347.88,-2979.89,-3974.7,835.977,3347.88,835.977,-4001.83,10,528,673,674,677,1508
5603.42,0.0264894,-0.00171689,-0.0151916,0.0112425,-0.0151916,-0.00345785,0.0105921,0.0112425,0.0105921,0.0103902,2837.94,-2106.9,1641.81,-2106.9,2659.48,1528.93,1641.81,1528.93,4468.54,10,514,528,673,674,1509
9910,0.0447074,-0.0166015,-0.0257124,0.0204002,-0.0257124,-0.0126192,0.0154241,0.0204002,0.0154241,0.00862097,-20875.1,-3685.95,3188.31,-3685.95,-19664.3,2255.65,3188.31,2255.65,-17015.4,10,528,674,677,678,1510
7675.9,0.0352599,-0.0110166,-0.0234369,0.0109633,-0.0234369,-0.0106608,0.0104898,0.0109633,0.0104898,0.0105781,-11565.4,-3367.52,1668.93,-3367.52,-11421.9,1578.3,1668.93,1578.3,-8484.63,10,514,519,673,674,1511
6507.6,0.0304506,-0.0148115,-0.0225537,-0.000384525,-0.0225537,0.00239019,-0.00199147,-0.000384525,-0.00199147,0.0118452,-3778.63,-3173.33,-69.9903,-3173.33,-1140.65,-299.449,-69.9903,-299.449,116.396,10,515,519,640,674,1512
6131.93,0.028299,-0.0101073,-0.0165842,0.00617005,-0.0165842,-0.00129298,0.0156967,0.00617005,0.0156967,0.00237033,-9270.68,-2369.03,919.374,-2369.03,-7978.5,2288.35,919.374,2288.35,-7499.41,10,513,518,672,673,1513
8561.94,0.0399995,0.0192349,0.0104972,0.00403887,0.0104972,0.00360203,-0.0246955,0.00403887,-0.0246955,-0.0233308,370.149,1518.63,678.411,1518.63,-1631.62,-3406.46,678.411,-3406.46,-5845.14,10,400,401,412,600,1514
6755.5,0.0318856,-0.0124629,-0.0154255,0.0102808,-0.0154255,0.0156463,0.0148776,0.0102808,0.0148776,0.00155481,541.069,-2093.34,1511.64,-2093.34,4644.19,2081.88,1511.64,2081.88,2514.82,10,527,672,673,676,1515
3426.7,0.0162061,-0.00172948,-0.00622712,0.0116768,-0.00622712,0.00663459,0.00147764,0.0116768,0.00147764,-0.000106069,3068.88,-868.834,1649.86,-868.834,4242.53,205.282,1649.86,205.282,3265.75,10,499,526,671,675,1516
3816.16,0.0178333,0.00799999,0.0112036,-0.000112248,0.0112036,-0.0112297,0.00428755,-0.000112248,0.00428755,0.00092958,-951.487,1569.19,-8.39063,1569.19,-3750.56,624.845,-8.39063,624.845,-1992.72,10,382,383,387,578,1517
5807.93,0.0271427,-0.00932393,-0.0176028,0.01141,-0.0176028,0.000357201,0.00651231,0.01141,0.00651231,0.00734751,-3447.23,-2494.05,1656.95,-2494.05,-2055.43,946.104,1656.95,946.104,-1109.21,10,514,518,519,673,1518
4354.69,0.0204632,0.0111134,-0.0123636,0.0027632,-0.0123636,-0.013139,0.000767944,0.0027632,0.000767944,0.00320492,2004.2,-1710.02,396.726,-1710.02,-1520.01,132.322,396.726,132.322,834.666,10,522,523,685,690,1519
7444.03,0.0341565,-0.00959307,0.0227188,-0.00986662,0.0227188,-0.0103987,0.0123329,-0.00986662,0.0123329,0.00810771,-11863.9,3271.15,-1499.42,3271.15,-11887.1,1836.64,-1499.42,1836.64,-9336.33,10,379,380,559,575,1520
8233.88,0.03832,-0.0170635,0.0195699,-0.0212976,0.0195699,0.00794589,0.00837877,-0.0212976,0.00837877,0.00614292,-6651.8,2646.01,-3134.21,2646.01,-2740.35,1113.12,-3134.21,1113.12,-3236.16,10,379,380,391,563,1521
5160.62,0.0245174,0.00385175,0.0126504,-0.0103435,0.0126504,-0.00366754,0.012229,-0.0103435,0.012229,0.00786178,5869.65,1750.07,-1493.45,1750.07,4889.09,1737.91,-1493.45,1737.91,6364.5,10,379,380,559,563,1522
8289.2,0.0381903,-0.014355,0.0217521,-0.0177476,0.0217521,-0.00540516,0.011989,-0.0177476,0.011989,0.0107585,-10907.5,3025.19,-2710.35,3025.19,-9113.55,1704.76,-2710.35,1704.76,-7167.08,10,380,391,563,564,1523
7963.25,0.0370547,-0.0222042,0.0234028,-0.00393499,0.0234028,0.00111051,0.00784197,-0.00393499,0.00784197,0.0178726,-7562.99,3190.4,-701.053,3190.4,-3684.02,1154.05,-701.053,1154.05,-1608.2,10,367,380,553,564,1524
10997.4,0.0508863,-0.034365,0.0286244,-0.0169515,0.0286244,0.00955744,0.000272963,-0.0169515,0.000272963,0.0201377,-12150.9,3729.37,-2473.23,3729.37,-4982.73,-83.3228,-2473.23,-83.3228,-3843.46,10,367,380,392,564,1525
10485.9,0.0484595,-0.0145365,0.0383609,0.00370197,0.0383609,-0.00747591,0.0040443,0.00370197,0.0040443,0.0162239,-9651.47,5510.24,459.244,5510.24,-8128.07,633.139,459.244,633.139,-4979.5,10,367,368,380,553,1526
3274.1,0.0153335,-0.00320882,0.00310407,-0.00973125,0.00310407,0.00471111,0.00724733,-0.00973125,0.00724733,-0.00262499,-1558.94,422.695,-1389.03,422.695,-452.766,1030.33,-1389.03,1030.33,-1547.18,10,377,378,557,561,1527
4418.69,0.0206517,-0.00423359,0.00869695,-0.00877678,0.00869695,0.00698568,0.0110899,-0.00877678,0.0110899,-0.00480791,-2650.3,1206.86,-1260.78,1206.86,-1055.4,1589.42,-1260.78,1589.42,-2801.51,10,378,558,561,562,1528
3540.3,0.0167325,-0.00389448,0.00645778,-0.0112418,0.00645778,0.0084984,0.00121372,-0.0112418,0.00121372,-0.000167907,2464.63,897.913,-1591.07,897.913,4214.51,165.728,-1591.07,165.728,2963.44,10,377,389,539,561,1529
6166.47,0.0286957,-0.0102633,0.0150473,-0.0114814,0.0150473,0.00167113,0.0140575,-0.0114814,0.0140575,0.00455563,-5594.44,2081.35,-1730.29,2081.35,-3677.07,1998.55,-1730.29,1998.55,-3492.2,10,379,390,562,563,1530
6322.23,0.0297,-0.0130202,0.0132306,-0.014536,0.0132306,0.0132629,0.0100954,-0.014536,0.0100954,0.0014682,-1656.02,1797.83,-2112.36,1797.83,2169.34,1402.44,-2112.36,1402.44,367.552,10,378,379,390,562,1531
10100.6,0.0455771,-0.0307124,-0.0238618,0.0202631,-0.0238618,0.000392759,0.0112022,0.0202631,0.0112022,0.00997587,-22973.7,-3213.34,3125.67,-3213.34,-17612.9,1523.86,3125.67,1523.86,-16657.9,10,528,529,674,678,1532
3345.23,0.0158583,-0.00389904,0.00852184,-0.00270273,0.00852184,0.00643436,0.00894826,-0.00270273,0.00894826,0.00366884,3817.22,1180.72,-395.071,1180.72,5291.93,1264.95,-395.071,1264.95,4884.2,10,378,558,573,574,1533
2434.82,0.0114373,-0.00211398,0.00367567,-0.00766162,0.00367567,0.00251182,0.00453278,-0.00766162,0.00453278,0.00012561,-43.2584,509.651,-1094,509.651,599.862,644.411,-1094,644.411,227.324,10,377,557,572,573,1534
2623.35,0.0123797,0.00700673,-0.00774681,-0.00265711,-0.00774681,-0.00494199,0.00348717,-0.00265711,0.00348717,0.00125547,3319.53,-1082.55,-381.389,-1082.55,1609.2,494.842,-381.389,494.842,2500.25,10,517,521,522,684,1535
4164.02,0.0194903,-0.00430753,-0.0101782,0.00818964,-0.0101782,0.00696995,0.00856213,0.00818964,0.00856213,-0.00390302,-1985.04,-1433.72,1164.8,-1433.72,-407.616,1241.55,1164.8,1241.55,-1978.39,10,512,513,517,672,1536
7355.7,0.0346402,0.00892136,0.0255044,-0.007575,0.0255044,-0.0134598,0.00550125,-0.007575,0.00550125,0.00821085,2695.44,3550.84,-1069.98,3550.84,-704.594,828.298,-1069.98,828.298,2450.75,10,379,384,574,575,1537
5964.69,0.0277016,-0.00918473,0.018038,-0.0106857,0.018038,-0.000533606,0.00941394,-0.0106857,0.00941394,0.00441117,-6255.39,2563.14,-1572.36,2563.14,-5005.36,1378.02,-1572.36,1378.02,-4372.29,10,379,558,559,574,1538
10156,0.0470236,-0.0307108,-0.0237279,0.0193792,-0.0237279,0.00401858,-0.00260863,0.0193792,-0.00260863,0.0217897,-11217.7,-3115.82,2760.37,-3115.82,-5573.35,-491.253,2760.37,-491.253,-3243.59,10,529,639,674,678,1539
3001.87,0.0141377,0.00775424,0.00883787,0.00142981,0.00883787,-0.00641246,0.0044237,0.00142981,0.0044237,0.000847165,2529.44,1227.45,216.151,1227.45,478.153,630.966,216.151,630.966,1534.96,10,382,573,577,578,1540
5883.08,0.0273483,-0.00932069,-0.0174819,0.0102055,-0.0174819,-0.000336451,0.00997847,0.0102055,0.00997847,0.00488101,-5863.4,-2484.39,1497.67,-2484.39,-4543.79,1446.59,1497.67,1446.59,-3869.02,10,513,514,518,673,1541
3745.96,0.0177894,-0.00428161,-0.00973912,0.00169977,-0.00973912,0.00669957,0.0102372,0.00169977,0.0102372,0.00494866,4567.71,-1353.88,249.81,-1353.88,6115.5,1446.32,249.81,1446.32,5864.82,10,513,517,518,672,1542
8370.9,0.0388516,-0.0200896,0.028537,0.00268214,0.028537,0.00422685,-0.00626239,0.00268214,-0.00626239,0.0113163,-8512.22,3943.51,457.17,3943.51,-4355.71,-883.945,457.17,-883.945,-3697.24,10,436,553,619,622,1543
7341.36,0.0330655,-0.0254797,0.0139559,-0.00115028,0.0139559,-0.014194,0.0121809,-0.00115028,0.0121809,0.0166469,-22787.4,1962.1,-324.896,1962.1,-20703.4,1857.51,-324.896,1857.51,-16414.3,10,367,553,554,564,1544
6928.26,0.0328089,0.00264855,0.0187692,0.0100636,0.0187692,-0.00595654,-0.0169974,0.0100636,-0.0169974,0.0101363,4237.23,2603.05,1448.32,2603.05,3028.38,-2440.34,1448.32,-2440.34,5187.98,10,414,597,598,615,1545
8115.51,0.037981,-0.0137346,0.0234467,-0.00423331,0.0234467,-0.0102447,0.00850483,-0.00423331,0.00850483,0.0242953,-3854.67,3285.4,-703.22,3285.4,-2600.91,1226.38,-703.22,1226.38,1901.1,10,366,367,392,554,1546
8335.08,0.0388956,0.00539405,-0.0293922,-0.00324506,-0.0293922,-0.0185215,0.00214305,-0.00324506,0.00214305,0.0118185,-2013.52,-4175.08,-462.371,-4175.08,-5559.37,291.099,-462.371,291.099,-1168.39,10,519,640,674,686,1547
5602.28,0.0263581,0.00916638,-0.018279,-0.00463195,-0.018279,-0.0137632,-0.0023731,-0.00463195,-0.0023731,0.0069342,2297.34,-2543.69,-637.68,-2543.69,-1108.64,-341.341,-637.68,-341.341,1899.9,10,442,443,519,641,1548
5720.01,0.0271661,0.0107715,-0.0204113,-0.00660314,-0.0204113,-0.00772252,-0.00193708,-0.00660314,-0.00193708,0.00499634,6762,-2832.24,-917.909,-2832.24,4018.15,-286.212,-917.909,-286.212,5873.55,10,519,523,641,686,1549
9472.85,0.0444335,0.0361884,-0.0154216,-0.000971921,-0.0154216,-0.0145862,-0.0172475,-0.000971921,-0.0172475,-0.0191984,4552.65,-2259.38,-327.09,-2259.38,-2327.26,-2386.67,-327.09,-2386.67,-3525.31,10,400,451,452,664,1550
12924.8,0.0605403,0.0474369,0.0030373,-0.00868391,0.0030373,-0.0526132,0.010673,-0.00868391,0.010673,0.00938573,5437.44,367.257,-1242.76,367.257,-8883.69,1261.49,-1242.76,1261.49,125.323,10,398,450,668,670,1551
8501.82,0.0388502,0.0126728,0.00707282,-0.0149287,0.00707282,-0.034318,0.0138239,-0.0149287,0.0138239,0.00783038,-10402.4,729.663,-2042.48,729.663,-17573.6,1907.57,-2042.48,1907.57,-11041.5,10,488,489,668,670,1552
8129.1,0.0375672,0.00889932,0.0038407,-0.0272414,0.0038407,-0.0184507,-0.00992106,-0.0272414,-0.00992106,0.00219389,-5838.32,453.793,-3980.66,453.793,-9885.17,-1290.83,-3980.66,-1290.83,-7057.91,10,484,489,667,668,1553
3993.73,0.0187572,0.004392,0.00221891,0.00130612,0.00221891,-0.0102291,-0.0131753,0.00130612,-0.0131753,0.00660168,773.755,316.142,183.196,316.142,-1333.54,-1849.45,183.196,-1849.45,1119.2,10,423,455,609,612,1554
4753.86,0.0222303,-0.000789095,0.00355254,0.0140965,0.00355254,-0.00875733,-0.00947685,0.0140965,-0.00947685,0.00791035,-1888.53,514.362,2025.91,514.362,-3103.55,-1324.38,2025.91,-1324.38,-728.695,10,419,598,599,603,1555
5219.57,0.0243268,0.00934753,0.00345126,0.00586438,0.00345126,0.000274395,-0.0164365,0.00586438,-0.0164365,-0.0130891,-2014.6,488.361,860.522,488.361,-3229.58,-2315.7,860.522,-2315.7,-5288.99,10,401,453,454,605,1556
3899.16,0.018396,0.00676734,0.00446602,0.000204263,0.00446602,-0.00904814,-0.01247,0.000204263,-0.01247,0.005742,3155.65,627.327,23.7416,627.327,890.068,-1744.53,23.7416,-1744.53,3043.29,10,423,608,609,611,1557
6005.57,0.0282203,0.00634952,-0.0114417,-0.00291464,-0.0114417,-0.0089698,-0.0197097,-0.00291464,-0.0197097,0.00436645,1234.34,-1620.74,-418.033,-1620.74,-940.73,-2792.63,-418.033,-2792.63,994.026,10,472,652,653,656,1558
5662.38,0.0264705,0.0133801,-0.00177401,0.00021109,-0.00177401,-0.0093443,-0.0193453,0.00021109,-0.0193453,-0.00552869,-80.9155,-274.589,9.19836,-274.589,-3285.24,-2761.11,9.19836,-2761.11,-2807.41,10,401,454,471,653,1559
5226.87,0.02451,0.00469958,-0.00262441,0.00174811,-0.00262441,-0.0167442,-0.0146465,0.00174811,-0.0146465,0.0122369,84.6292,-366.77,252.46,-366.77,-2995.69,-2051.58,252.46,-2051.58,1186.85,10,403,455,657,659,1560
3709.36,0.017354,0.00478335,-0.00209,-0.000213967,-0.00209,-0.0148683,-0.00801832,-0.000213967,-0.00801832,0.00844261,-923.388,-290.862,-24.49,-290.862,-3755.46,-1099.52,-24.49,-1099.52,-374.387,10,455,476,480,659,1561
4275.64,0.020088,-0.00390948,0.00654307,-0.0134141,0.00654307,0.0082077,0.0057859,-0.0134141,0.0057859,-0.00324908,-234.275,901.173,-1913.86,901.173,1484.29,807.946,-1913.86,807.946,-201.294,10,377,378,389,561,1562
2119.52,0.0099655,0.00229268,-0.00389423,0.000760246,-0.00389423,-0.00158297,-0.00741519,0.000760246,-0.00741519,0.000326417,992.455,-550.068,116.475,-550.068,416.378,-1047.96,116.475,-1047.96,724.429,10,475,479,629,650,1563
2897.29,0.0136337,0.00219207,-0.00486614,0.00996048,-0.00486614,0.00262274,0.00248298,0.00996048,0.00248298,-0.00315289,1351.08,-674.462,1413.47,-674.462,1416.88,339.249,1413.47,339.249,554.885,10,526,530,586,675,1564
3482.82,0.0167301,2.5269e-05,-0.00126231,0.00968298,-0.00126231,0.0169922,0.000111673,0.00968298,0.000111673,-0.00279433,10388,-162.326,1341.55,-162.326,12720.3,-5.53334,1341.55,-5.53334,9950.49,10,499,526,586,675,1565
5901.51,0.0270628,-0.00556031,-0.0114517,0.017958,-0.0114517,-0.000423124,0.00915996,0.017958,0.00915996,-0.00692882,-11455.5,-1634.04,2622.46,-1634.04,-10721.5,1333.12,2622.46,1333.12,-11759.3,10,526,672,675,676,1566
2332.02,0.0109733,-0.00212996,-0.00317381,0.00773465,-0.00317381,0.00375425,0.0033896,0.00773465,0.0033896,-8.17122e-05,736.652,-444.211,1098.85,-444.211,1550.67,483.665,1098.85,483.665,985.04,10,499,512,526,671,1567
7171.51,0.0333787,-0.00229667,-0.00860205,0.0256126,-0.00860205,0.00959539,-0.000892706,0.0256126,-0.000892706,-0.0107854,-4332.39,-1140.76,3682.72,-1140.76,-2598.72,-229.509,3682.72,-229.509,-5569.6,10,530,675,676,679,1568
2355.06,0.0110839,-0.00319994,0.00302382,-0.0075458,0.00302382,0.00498785,0.00299193,-0.0075458,0.00299193,-0.000124232,671.745,422.724,-1073.36,422.724,1814.01,426.244,-1073.36,426.244,1068.74,10,377,539,557,561,1569
6098.24,0.0282931,-0.000861443,0.00572719,-0.022846,0.00572719,0.00404578,0.00134946,-0.022846,0.00134946,-0.00905544,-5526.52,755.82,-3292.21,755.82,-4812.77,125.101,-3292.21,125.101,-6760.15,10,389,390,393,565,1570
3334.72,0.015897,-0.00150754,0.00329845,-0.0105457,0.00329845,0.0126726,0.000182128,-0.0105457,0.000182128,-0.00158877,6712.64,443.816,-1476.64,443.816,8683.17,12.0041,-1476.64,12.0041,6660.91,10,389,538,539,561,1571
3761.89,0.0177615,-0.00268776,0.00621225,-0.00751572,0.00621225,0.0105584,0.00875466,-0.00751572,0.00875466,-0.00400477,2177.66,851.603,-1063.94,851.603,4034.36,1242.1,-1063.94,1242.1,1937.11,10,378,557,558,561,1572
1867.86,0.00884494,0.00460125,-0.0023261,0.00222829,-0.0023261,-0.00039257,-0.00645814,0.00222829,-0.00645814,0.00107017,4536.48,-320.437,322.098,-320.437,3809.61,-905.239,322.098,-905.239,4050.55,10,479,628,629,654,1573
4572.2,0.0213051,0.00216484,-0.00505133,0.0158127,-0.00505133,0.0024656,0.00512691,0.0158127,0.00512691,-0.00844091,-3071.98,-688.133,2253.84,-688.133,-3053.72,708.74,2253.84,708.74,-4717.5,10,526,530,675,676,1574
5746.07,0.0265543,0.00828702,0.00330975,0.0151688,0.00330975,0.00090611,0.01051,0.0151688,0.01051,-0.0175657,-5947.09,541.647,2156.57,541.647,-6989.72,1404.36,2156.57,1404.36,-9852.6,10,360,534,679,680,1575
5035.86,0.0238512,0.00890553,-0.0110195,0.00834636,-0.0110195,0.00347858,0.0132923,0.00834636,0.0132923,-0.00624055,5163.65,-1540.48,1215.79,-1540.48,4514.03,1838.01,1215.79,1838.01,3007.2,10,501,530,534,587,1576
2367.98,0.0111229,0,0,0.00760787,0,0,0.00590168,0.00760787,0.00590168,0.000488091,235.982,12.745,1080.1,12.745,229.439,837.87,1080.1,837.87,262.51,10,500,501,530,587,1577
6896.45,0.0326213,-0.00262848,-0.0034221,0.0163887,-0.0034221,0.0267387,-0.0010605,0.0163887,-0.0010605,-0.0179989,2951.49,-376.951,2315.22,-376.951,7081.05,-354.779,2315.22,-354.779,787.035,10,530,586,587,679,1578
5482.35,0.0258749,0.00355434,-0.00960453,0.0108592,-0.00960453,0.000285725,0.0169844,0.0108592,0.0169844,0.00034808,2809.16,-1303.93,1624.1,-1303.93,2550.87,2367.49,1624.1,2367.49,2258.94,10,527,531,676,677,1579
8649.72,0.0396664,-0.0148351,-0.0219975,0.0118522,-0.0219975,0.00129809,0.0215728,0.0118522,0.0215728,0.0019347,-12974,-3100.49,1843.43,-3100.49,-10353.9,3132.94,1843.43,3132.94,-10573.5,10,527,673,676,677,1580
7727.27,0.0360004,-0.0148292,-0.024386,0.0126754,-0.024386,0.000167964,0.00593705,0.0126754,0.00593705,0.0120497,-5765.69,-3428.94,1896.96,-3428.94,-3436.09,868.871,1896.96,868.871,-1897.67,10,514,515,519,674,1581
1770.58,0.00829073,-0.00269659,-0.00199268,0.00639248,-0.00199268,0.000406687,0.00174073,0.00639248,0.00174073,0.000814534,-1567.8,-279.315,914.92,-279.315,-1136.83,248.05,914.92,248.05,-1095.83,10,498,516,584,671,1582
4421.89,0.0206167,0.0075549,0.0111338,-0.00717297,0.0111338,-0.00930737,0.00848735,-0.00717297,0.00848735,-0.00175184,-2036.34,1558.03,-1000.47,1558.03,-4521.78,1239.55,-1000.47,1239.55,-3438.36,10,377,378,382,573,1583
1718.58,0.00804819,-0.00253674,0.00253139,-0.00606191,0.00253139,0.000540221,0.00149027,-0.00606191,0.00149027,0.000586782,-1491.74,356.318,-867.476,356.318,-1063.02,212.605,-867.476,212.605,-1073.36,10,355,377,540,572,1584
5074.58,0.0240855,0.0102825,0.0109165,-0.00763747,0.0109165,0.00390076,0.0135481,-0.00763747,0.0135481,-0.00674845,6313.1,1526.52,-1116.31,1526.52,5532.11,1867.08,-1116.31,1867.08,3896.11,10,358,537,565,569,1585
4459.09,0.0207823,0.000733329,0.00531229,-0.0149786,0.00531229,0.00268974,0.00665246,-0.0149786,0.00665246,-0.00714315,-3192.63,719.259,-2145.58,719.259,-2915.85,921.676,-2145.58,921.676,-4438.1,10,389,390,561,565,1586
4393.19,0.0206924,0.00332647,0.00914665,-0.0137177,0.00914665,0.00432124,0.00477418,-0.0137177,0.00477418,-0.00505098,1905.05,1276.48,-1951.59,1276.48,2082.48,654.938,-1951.59,654.938,699.379,10,357,389,393,538,1587
4215.25,0.0193289,0.00990188,-0.00191316,-0.00963475,-0.00191316,-0.011004,0.0052499,-0.00963475,0.0052499,-0.0124117,-9231.24,-277.298,-1391.7,-277.298,-12263.8,745.297,-1391.7,745.297,-12526.1,10,358,360,393,569,1588
2403.73,0.0112884,0,0,-0.00724174,0,0,0.00656381,-0.00724174,0.00656381,0.000366869,138.494,-13.4956,-1028.21,-13.4956,135.836,931.952,-1028.21,931.952,148.563,10,358,537,538,565,1589
4430.64,0.0208499,-0.00080863,0.00553564,-0.0167679,0.00553564,0.00424383,-0.0021583,-0.0167679,-0.0021583,-0.00137651,891.794,741.088,-2382.52,741.088,1639.32,-346.459,-2382.52,-346.459,847.751,10,389,393,538,565,1590
6277.55,0.0289441,0.000435577,0.0203971,-0.00795287,0.0203971,-0.011995,0.00948811,-0.00795287,0.00948811,0.00203934,-8103.1,2915.82,-1150.57,2915.82,-10014.7,1415.98,-1150.57,1415.98,-7975.19,10,378,379,383,574,1591
10358.7,0.0479132,-0.0136198,-0.038064,-0.00603199,-0.038064,-0.00718624,0.00182724,-0.00603199,0.00182724,0.0154512,-9101.27,-5470.3,-810.579,-5470.3,-7711.55,310.67,-810.579,310.67,-4688.88,10,444,639,640,674,1592
10640.5,0.049436,-0.000283456,0.00469846,-0.0422832,0.00469846,-0.0059307,6.93584e-05,-0.0422832,6.93584e-05,0.00360381,-5107.13,412.394,-6082.67,412.394,-5714.93,-190.141,-6082.67,-190.141,-4259.16,10,391,392,395,567,1593
8209.54,0.0381335,-0.00555245,-0.010328,0.0304661,-0.010328,0.00573191,0.00417106,0.0304661,0.00417106,-0.00433994,-5868.27,-1274.16,4434.95,-1274.16,-3972.84,374.988,4434.95,374.988,-5555.66,10,531,676,677,680,1594
2367.98,0.0111229,0,0,0.00760787,0,0,0.00590168,0.00760787,0.00590168,0.000488091,235.982,12.745,1080.1,12.745,229.439,837.87,1080.1,837.87,262.51,10,500,530,586,587,1595
8828.18,0.0409166,-0.0198502,-0.0216691,0.0208473,-0.0216691,0.00646826,0.0101833,0.0208473,0.0101833,0.0082693,-8956.55,-2954.93,3097,-2954.93,-4810.56,1391.76,3097,1391.76,-4818.43,10,527,528,673,677,1596
9283.98,0.0420446,-0.0230203,-0.0317835,0.00117857,-0.0317835,-0.00797621,-0.000141559,0.00117857,-0.000141559,0.0123028,-19948.5,-4641.28,187.626,-4641.28,-17448.9,-21.1651,187.626,-21.1651,-14603,10,444,515,640,674,1597
4162.8,0.0196833,0.00317623,0.00696988,-0.0109138,0.00696988,-0.00178733,0.010684,-0.0109138,0.010684,0.00347349,3617.16,957.849,-1601.9,957.849,3057.9,1480.42,-1601.9,1480.42,3599.59,10,390,562,563,566,1598
8555.17,0.0404286,-0.0151871,0.0133312,-0.0243669,0.0133312,0.0133798,0.0149166,-0.0243669,0.0149166,0.00823937,555.851,1467.07,-3651.2,1467.07,5084.65,1862.21,-3651.2,1862.21,3797.12,10,391,392,564,567,1599
10259.9,0.0466932,-0.000168793,-0.0101716,-0.0248871,-0.0101716,-0.034325,0.0133537,-0.0248871,0.0133537,0.019183,-14100.4,-1370.26,-3693.31,-1370.26,-19241.4,2064.65,-3693.31,2064.65,-11562.1,10,392,395,396,568,1600
9161.69,0.0415756,-0.0231096,0.0306725,-0.00161305,0.0306725,-0.00845578,0.00181532,-0.00161305,0.00181532,0.0140174,-19022.6,4469.86,-268.153,4469.86,-16593,281.188,-268.153,281.188,-13435.4,10,368,380,553,560,1601
7275.64,0.0337771,-0.0143066,0.0227734,-0.0114965,0.0227734,-0.00026591,0.00776755,-0.0114965,0.00776755,0.00961792,-7282.15,3214.66,-1724.7,3214.66,-5079.37,1126.54,-1724.7,1126.54,-3822.23,10,380,559,560,575,1602
6226.69,0.0291802,-0.0142925,0.0212432,-0.000589155,0.0212432,0.00162555,0.00077977,-0.000589155,0.00077977,0.012879,-3011.05,2986.07,-78.6193,2986.07,-560.384,100.552,-78.6193,100.552,947.164,10,368,380,560,575,1603
4827.71,0.0227501,0.00429341,-0.00980488,-0.00650026,-0.00980488,-0.0151527,-0.00555803,-0.00650026,-0.00555803,0.0138855,2301.05,-1364.16,-903.959,-1364.16,-534.98,-756.794,-903.959,-756.794,3625.67,10,467,472,473,651,1604
4191.41,0.0196999,0.00380888,-0.00484582,0.00206967,-0.00484582,-0.00983578,-0.0134701,0.00206967,-0.0134701,0.00727887,1018.96,-670.21,307.341,-670.21,-972.633,-1880.1,307.341,-1880.1,1558.68,10,472,477,478,656,1605
3593.67,0.0168787,0.00495413,-0.00266599,0.00153758,-0.00266599,-0.0136794,-0.00736256,0.00153758,-0.00736256,0.00940552,874.991,-354.775,230.105,-354.775,-1815.26,-984.229,230.105,-984.229,1540.79,10,472,478,651,655,1606
2351.13,0.011081,0.00478244,-0.00498057,0.000680477,-0.00498057,-0.00592349,-0.00567693,0.000680477,-0.00567693,0.00365104,2427.43,-697.954,107.862,-697.954,881.812,-784.949,107.862,-784.949,2280.21,10,479,650,651,654,1607
3373.14,0.0158734,0.00413098,-0.00315062,0.00216933,-0.00315062,-0.0132159,-0.00446721,0.00216933,-0.00446721,0.0108675,1629.02,-426.559,316.109,-426.559,-857.025,-574.457,316.109,-574.457,2601.19,10,478,482,655,656,1608
3715.17,0.0175875,0.00371907,-0.00481863,0.00145873,-0.00481863,-0.00880362,-0.0105077,0.00145873,-0.0105077,0.0105375,4265.12,-666.902,214.851,-666.902,2463.09,-1451.81,214.851,-1451.81,5253.8,10,477,478,482,656,1609
5922.87,0.0274232,0.00699939,-0.00604421,0.000929335,-0.00604421,-0.0212734,-0.0160968,0.000929335,-0.0160968,0.00711278,-5330.81,-852.055,148.153,-852.055,-9460.09,-2273.28,148.153,-2273.28,-5263.56,10,477,653,656,657,1610
5342.16,0.0251338,0.00654757,-0.00567606,0.00336751,-0.00567606,-0.0113099,-0.0179229,0.00336751,-0.0179229,0.00698991,1843.56,-799.552,482.081,-799.552,-715.256,-2525.34,482.081,-2525.34,1935.62,10,476,477,657,695,1611
5321.54,0.0247942,0.00650876,-0.01263,-0.000136133,-0.01263,-0.00124267,-0.0155612,-0.000136133,-0.0155612,-0.0089024,-2579.81,-1807.29,-25.1924,-1807.29,-3652.05,-2231.36,-25.1924,-2231.36,-4764.82,10,471,472,477,653,1612
3257.71,0.0152497,0.00462914,0.000665197,0.00511652,0.000665197,-0.0108691,-0.00816437,0.00511652,-0.00816437,0.00483383,-694.096,133.987,738.295,133.987,-2921.53,-1121.99,738.295,-1121.99,-613.69,10,478,651,654,655,1613
4066.95,0.0189306,0.00420217,0.000460962,0.00132058,0.000460962,-0.0162408,-0.0100946,0.00132058,-0.0100946,0.00744622,-3305.08,63.5109,186.97,63.5109,-6269.28,-1403.16,186.97,-1403.16,-2805.6,10,423,427,455,612,1614
5772.27,0.0269111,0.00752252,0.00568998,0.00294139,0.00568998,-0.00759289,-0.0210252,0.00294139,-0.0210252,-0.00301105,-2146.08,813.619,436.78,813.619,-4252.74,-3010.62,436.78,-3010.62,-3690.22,10,418,423,605,693,1615
4139.4,0.0195127,0.00825569,0.00860471,-0.000278889,0.00860471,-0.0142623,-0.00604369,-0.000278889,-0.00604369,0.00901533,2983.85,1203.68,-59.5429,1203.68,-243.109,-808.265,-59.5429,-808.265,3104.63,10,419,420,603,607,1616
3064.83,0.0144653,0.00499413,0.0021733,-0.0044593,0.0021733,-0.00923083,-0.00702826,-0.0044593,-0.00702826,0.00773167,3093.69,286.371,-640.34,286.371,1046.84,-951.775,-640.34,-951.775,3504.57,10,425,428,607,610,1617
4034.7,0.0189921,0.00579535,0.00428058,-0.00431872,0.00428058,-0.00975056,-0.0123093,-0.00431872,-0.0123093,0.0060747,1988.04,598.472,-620.102,598.472,-249.382,-1721.88,-620.102,-1721.88,2053.21,10,424,428,607,608,1618
3664.07,0.017171,0.0058126,0.00242579,-0.00461328,0.00242579,-0.0142014,-0.00680457,-0.00461328,-0.00680457,0.00774607,-11.5938,325.191,-665.006,325.191,-2892.87,-918.194,-665.006,-918.194,287.283,10,424,425,428,607,1619
3379.35,0.0158821,0.00629313,0.00495966,-0.00353913,0.00495966,-0.0108177,-0.00765588,-0.00353913,-0.00765588,0.00553193,1358.23,675.692,-518.239,675.692,-1112.16,-1059.45,-518.239,-1059.45,1263.31,10,420,603,606,607,1620
10026.3,0.0468808,0.0182919,-0.0255649,0.0232652,-0.0255649,-0.0230647,-0.00216506,0.0232652,-0.00216506,0.0055965,953.678,-3405.94,3263.65,-3405.94,-5616.02,-226.36,3263.65,-226.36,-1214.26,10,434,438,439,623,1621
7048.43,0.033347,0.0110796,-0.0188822,-0.0176964,-0.0188822,-0.00855896,-0.00811035,-0.0176964,-0.00811035,0.00378237,4884.94,-2696.82,-2522.75,-2696.82,2312.34,-1111.26,-2522.75,-1111.26,3915.8,10,467,484,485,662,1622
8713.21,0.0391905,-0.00425953,0.0168837,0.0193646,0.0168837,-0.0313827,-0.0013713,0.0193646,-0.0013713,0.0124812,-20388,2617.51,2945.37,2617.51,-23861.9,-219.961,2945.37,-219.961,-17636.7,10,435,439,619,620,1623
4175.79,0.0195124,-0.00301249,-0.0109476,-0.00446234,-0.0109476,-0.00931306,-0.00692522,-0.00446234,-0.00692522,0.0100767,-2555.64,-1549.45,-635.854,-1549.45,-3528.21,-989.633,-635.854,-989.633,-723.655,10,467,468,473,696,1624
8820.21,0.0412151,-0.00537305,0.031954,0.00853124,0.031954,-0.00831595,-0.00634297,0.00853124,-0.00634297,0.0134858,-3519.19,4550.05,1281.4,4550.05,-2939.84,-838.225,1281.4,-838.225,-330.953,10,436,439,619,622,1625
9638.49,0.0409741,-0.0172239,0.0107459,0.0146462,0.0107459,-0.0495101,-0.00374364,0.0146462,-0.00374364,0.0109464,-47855.4,1969.59,2369.87,1969.59,-52361.9,-635.401,2369.87,-635.401,-43182.5,10,439,620,622,623,1626
6742.04,0.030656,0.00507292,0.0134652,0.0152695,0.0134652,-0.0019732,-0.0106063,0.0152695,-0.0106063,-0.0207302,-13879,1908.94,2336.55,1908.94,-14614.1,-1394.18,2336.55,-1394.18,-17697.4,10,429,599,616,617,1627
14791.1,0.0635129,0.0189782,0.00257793,-0.0170104,0.00257793,-0.0735304,0.0128905,-0.0170104,0.0128905,0.0083799,-37622.6,-37.6954,-2569.12,-37.6954,-52145.3,1585.84,-2569.12,1585.84,-39118.1,10,488,489,493,670,1628
6731.03,0.0315003,0.00481303,-0.0237087,-0.00449482,-0.0237087,-0.013119,-0.00574791,-0.00449482,-0.00574791,0.00790524,-794.17,-3365.49,-623.291,-3365.49,-3433.79,-804.537,-623.291,-804.537,-383.629,10,468,486,661,662,1629
6571.29,0.0317587,-0.0167306,-0.0118233,-0.0124855,-0.0118233,0.022837,-0.00608038,-0.0124855,-0.00608038,0.0129146,10544,-1161.17,-1793.6,-1161.17,16467.2,-678.322,-1793.6,-678.322,14844.2,10,489,490,494,669,1630
7352.55,0.0363957,0.0110172,-0.0124301,-0.0213905,-0.0124301,0.0228268,-0.0159344,-0.0213905,-0.0159344,0.000249818,25316.9,-1488.78,-3016.94,-1488.78,27296.6,-1911.64,-3016.94,-1911.64,23816.3,10,483,484,489,668,1631
7860.7,0.0370688,0.0110218,-0.00743133,-0.0212478,-0.00743133,-0.0118434,-0.0195266,-0.0212478,-0.0195266,0.00556073,3410.71,-1057.06,-3126.83,-1057.06,473.4,-2726.64,-3126.83,-2726.64,2518.99,10,484,663,664,668,1632
9865,0.0457869,-0.00401512,-0.0290243,-0.0223076,-0.0290243,-0.00790112,-0.0126793,-0.0223076,-0.0126793,0.00829854,-6186.2,-4145.1,-3309.84,-4145.1,-6143.95,-1739.86,-3309.84,-1739.86,-4209.39,10,490,662,666,667,1633
7143.35,0.0345527,0.0183861,0.0121014,-0.019471,0.0121014,-0.01409,-0.00686564,-0.019471,-0.00686564,0.0154568,16160.8,1493.08,-2690.02,1493.08,11388.7,-911.273,-2690.02,-911.273,15524,10,489,667,669,670,1634
5002.62,0.0236607,0.00777405,-0.0134034,-0.000546815,-0.0134034,-0.00866065,-0.012562,-0.000546815,-0.012562,0.00617344,4426.82,-1866.98,-60.7376,-1866.98,2055.47,-1774.73,-60.7376,-1774.73,4185.5,10,468,645,650,697,1635
8852.77,0.0419446,0.00110317,-0.0262103,-0.0104726,-0.0262103,-0.012578,-0.0161473,-0.0104726,-0.0161473,0.0196788,3850.69,-3738.67,-1616.57,-3738.67,2633.76,-2259.48,-1616.57,-2259.48,6731.12,10,490,666,667,669,1636
8803.49,0.0410071,-0.000904148,-0.030857,-0.00703149,-0.030857,-0.015377,-0.00643393,-0.00703149,-0.00643393,0.0141638,-4236.83,-4490.87,-1063.37,-4490.87,-5460.71,-875.356,-1063.37,-875.356,-1657.66,10,490,494,666,669,1637
6808.51,0.031855,0.00591188,0.0015504,0.0258456,0.0015504,-0.0108653,-0.00214062,0.0258456,-0.00214062,0.00438826,-812.202,362.358,3644.21,362.358,-3257.26,-337.591,3644.21,-337.591,-896.549,10,532,535,536,681,1638
10599,0.0476183,0.0274733,0.00673862,0.00967065,0.00673862,-0.0397413,0.0206427,0.00967065,0.0206427,-0.0104198,-15920,692.917,1524.32,692.917,-25675.6,3227.84,1524.32,3227.84,-21934.8,10,361,362,535,681,1639
6918.34,0.0326263,0.00732909,0.00278269,0.023487,0.00278269,0.0130308,0.00125353,0.023487,0.00125353,-0.0160464,3021.23,570.789,3306.75,570.789,3749.96,-152.337,3306.75,-152.337,-304.152,10,531,535,680,681,1640
8311.14,0.0381092,0.000209838,-0.00700863,0.0293624,-0.00700863,1.58967e-05,0.0113278,0.0293624,0.0113278,-0.012089,-10929.2,-898.813,4383.63,-898.813,-10603.8,1387.43,4383.63,1387.43,-12540.9,10,531,677,680,681,1641
9924.88,0.045212,0.00481363,-0.00329742,0.0348833,-0.00329742,-0.0229335,0.00793914,0.0348833,0.00793914,0.0031715,-13318.8,-452.729,5195.25,-452.729,-16960.8,1055.78,5195.25,1055.78,-13236,10,532,533,678,681,1642
12871.3,0.0582944,0.0291653,0.0044709,0.0156872,0.0044709,-0.0597185,-0.00371392,0.0156872,-0.00371392,0.014408,-12183.8,350.115,2274.62,350.115,-25362.8,-102.531,2274.62,-102.531,-14359.3,10,362,536,681,682,1643
12824.5,0.058298,0.0287929,-0.00458635,-0.0194432,-0.00458635,-0.0575751,-0.00117895,-0.0194432,-0.00117895,0.0147809,-10566.4,-396.473,-2822.91,-396.473,-23309.7,242.322,-2822.91,242.322,-12681.4,10,362,395,396,571,1644
8640.77,0.0409305,0.0306001,0.00257828,-0.017152,0.00257828,-0.029835,0.00525055,-0.017152,0.00525055,0.00708383,8194.61,473.435,-2474.74,473.435,-136.908,988.889,-2474.74,988.889,4818.26,10,362,395,570,571,1645
5667.68,0.0267405,0.0155425,0.00924507,0.00320805,0.00924507,0.0100077,-0.00641149,0.00320805,-0.00641149,-0.0215073,4350.82,1354.29,353.347,1354.29,3426.79,-1289.2,353.347,-1289.2,-652.031,10,361,362,504,570,1646
5714.78,0.0269219,0.0146437,-0.0103209,-0.00300504,-0.0103209,0.0100077,-0.00641149,-0.00300504,-0.00641149,-0.0215073,3540.39,-1505.02,-318.668,-1505.02,2738.17,-1288.97,-318.668,-1288.97,-1343.11,10,361,362,504,535,1647
9807.86,0.0446173,0.0209732,-0.0173821,0.0112584,-0.0173821,-0.0414641,-0.00382315,0.0112584,-0.00382315,0.00474626,-11437.2,-2609.03,1827.24,-2609.03,-20420.1,-126.134,1827.24,-126.134,-13650.6,10,362,505,535,536,1648
10434,0.0470461,0.0274733,-0.00639875,-0.00931971,-0.00639875,-0.0378923,0.0213456,-0.00931971,0.0213456,-0.0102294,-14317.1,-639.801,-1487.33,-639.801,-23742.4,3308.13,-1487.33,3308.13,-20273.4,10,361,362,395,570,1649
10570.6,0.0481818,0.00949857,0.00102415,-0.036824,0.00102415,-0.0240813,0.00908482,-0.036824,0.00908482,0.00038053,-12349.2,150.482,-5487.27,150.482,-16900.6,1204.95,-5487.27,1204.95,-13421.9,10,392,395,567,568,1650
10324.9,0.0469749,0.0217703,0.0205261,-0.0122748,0.0205261,-0.0415978,-0.00316975,-0.0122748,-0.00316975,0.00448009,-11286,3032.67,-2012.92,3032.67,-20387.7,-27.9488,-2012.92,-27.9488,-13663.3,10,362,505,570,571,1651
7831.23,0.0362861,-0.00278848,0.0088092,-0.0297224,0.0088092,0.00323949,0.001775,-0.0297224,0.001775,-0.00631366,-6577,1088.96,-4323.43,1088.96,-5483.58,45.5646,-4323.43,45.5646,-6920.03,10,390,391,394,566,1652
7017.54,0.0330836,0.00844114,-0.00311067,-0.0244005,-0.00311067,0.0112129,0.000523469,-0.0244005,0.000523469,-0.0154891,3018.45,-601.116,-3438.07,-601.116,3339.55,-231.505,-3438.07,-231.505,-351.278,10,394,395,566,570,1653
7206.8,0.0336156,0.00651242,-0.00018608,-0.0270122,-0.00018608,-0.0131887,-0.000755436,-0.0270122,-0.000755436,0.00444824,-2143.66,-167.804,-3849.53,-167.804,-4931.64,-116.983,-3849.53,-116.983,-2302.32,10,395,567,570,571,1654
8367.61,0.0379222,0.0190055,0.01642,0.017259,0.01642,-0.0236137,0.00302725,0.017259,0.00302725,-0.0142816,-13137.6,2356.21,2453.75,2356.21,-19608.7,428.337,2453.75,428.337,-18201.3,10,361,535,680,681,1655
4087.02,0.0188095,0.00930103,0.00170577,0.0101212,0.00170577,-0.00628691,0.00388139,0.0101212,0.00388139,-0.0143852,-7670.64,260.079,1450.67,260.079,-9927.44,523.066,1450.67,523.066,-11154.2,10,360,534,587,679,1656
6762.12,0.0312177,0.0213322,0.0100056,0.0114404,0.0100056,-0.0138128,0.0076989,0.0114404,0.0076989,-0.0161286,-4552.22,1414.16,1631.12,1414.16,-9634.98,1070.12,1631.12,1070.12,-10082.5,10,361,534,535,680,1657
3338.55,0.0157908,0.00774221,-0.0012626,0.0043424,-0.0012626,0.0101591,-0.00190218,0.0043424,-0.00190218,-0.0130596,4443.84,-158.848,603.646,-158.848,4759.63,-374.804,603.646,-374.804,1522.65,10,360,501,503,534,1658
7823.55,0.0361317,0.0187415,-0.0116739,-0.00837023,-0.0116739,-0.00318471,0.0181207,-0.00837023,0.0181207,-0.0234099,-4757.85,-1640.62,-1239.04,-1640.62,-7930.74,2519.33,-1239.04,2519.33,-11027.9,10,360,361,394,569,1659
6435.61,0.0298233,0.0199298,-0.00960677,-0.0118924,-0.00960677,-0.0122743,0.00816134,-0.0118924,0.00816134,-0.014128,-3050.92,-1360.7,-1697.88,-1360.7,-7679.04,1136.42,-1697.88,1136.42,-8062.23,10,361,394,569,570,1660
8294.02,0.0390775,0.0048441,0.00590301,0.0300378,0.00590301,0.00956542,-0.0102245,0.0300378,-0.0102245,-0.00994675,2196.88,1108.85,4136.67,1108.85,2577.03,-1779.91,4136.67,-1779.91,348.962,10,531,532,535,681,1661
7902.35,0.0368357,0.0130003,-0.00192476,0.00010405,-0.00192476,0.0121851,-0.0219317,0.00010405,-0.0219317,-0.0273863,-1478.66,-286.536,14.6241,-286.536,-2097.32,-3524.56,14.6241,-3524.56,-6752.42,10,361,504,534,535,1662
8049.37,0.0365846,0.0176454,-0.0158603,-0.0177197,-0.0158603,-0.0214882,0.00327519,-0.0177197,0.00327519,-0.013502,-12057,-2282.92,-2524.87,-2282.92,-17979.4,458.677,-2524.87,458.677,-16777.5,10,361,394,395,570,1663
5885.7,0.0275447,-0.00225084,-0.00843426,0.0201624,-0.00843426,0.00970753,-0.00284149,0.0201624,-0.00284149,-0.0082149,-1856.22,-1128.46,2886.1,-1128.46,-92.7491,-489.805,2886.1,-489.805,-2641.95,10,530,586,675,679,1664
8932.53,0.0417867,-0.00571189,-0.00374305,0.026123,-0.00374305,0.0271016,0.0034928,0.026123,0.0034928,-0.0208548,-2592.03,-224.761,3749.03,-224.761,2160.93,89.4964,3749.03,89.4964,-4743.9,10,531,534,679,680,1665
8322.82,0.0377066,-0.00278162,0.00875456,-0.0287001,0.00875456,0.00270675,0.00626915,-0.0287001,0.00626915,-0.0189454,-16758,1099.86,-4309.74,1099.86,-15667.3,638.317,-4309.74,638.317,-19006.3,10,390,393,394,566,1666
8750.8,0.0396283,-0.0055465,-0.0102746,0.0295518,-0.0102746,0.00540842,0.00712077,0.0295518,0.00712077,-0.0189009,-17382.8,-1297.14,4441.52,-1297.14,-15453.6,746.308,4441.52,746.308,-19226.3,10,531,676,679,680,1667
6171.4,0.0289443,-0.0178191,0.00272353,-0.0137393,0.00272353,-0.0027887,0.00662049,-0.0137393,0.00662049,0.0212476,-3063.13,178.04,-2071.84,178.04,-842.666,843.643,-2071.84,843.643,2438.05,10,366,392,554,568,1668
10799.1,0.048719,-0.0273818,0.0294417,-0.0188369,0.0294417,-0.00855313,0.00931344,-0.0188369,0.00931344,0.0159358,-22835.1,4107.64,-2860.81,4107.64,-18884.2,1205.43,-2860.81,1205.43,-15821.4,10,367,392,554,564,1669
8337.54,0.0394403,0.0296087,0.00018815,0.0158626,0.00018815,-0.029831,0.00380939,0.0158626,0.00380939,0.00707621,7478.33,-114.351,2265.36,-114.351,-800.687,790.779,2265.36,790.779,4231.73,10,362,535,536,681,1670
3311.97,0.0156509,0.00759561,0.00221938,-0.00294755,0.00221938,0.0101379,-0.00158768,-0.00294755,-0.00158768,-0.0134466,4009.69,300.184,-415.114,300.184,4347.99,-332.071,-415.114,-332.071,1053.91,10,360,503,537,569,1671
8338.83,0.0393437,0.00611874,-0.00568063,-0.0303641,-0.00568063,0.00913896,-0.0100852,-0.0303641,-0.0100852,-0.00992442,2987.69,-1061.79,-4191.9,-1061.79,3167.77,-1737.59,-4191.9,-1737.59,990.711,10,395,566,567,570,1672
4575.07,0.021458,0.00526442,0.000939354,-0.015808,0.000939354,0.00259128,0.00687721,-0.015808,0.00687721,-0.00775237,264.403,80.946,-2266.18,80.946,-59.1174,898.536,-2266.18,898.536,-1630.67,10,393,565,566,569,1673
9501.78,0.0404559,0.0152919,0.0129396,0.00197716,0.0129396,-0.0442659,0.0111895,0.00197716,0.0111895,-0.0259993,-41831.7,2140.08,125.022,2140.08,-50759.1,1966.3,125.022,1966.3,-48559.1,10,362,504,505,570,1674
1686.64,0.00794558,0.00229498,-0.00417735,0.00328669,-0.00417735,-0.00289553,0.00304424,0.00328669,0.00304424,0.00274624,1876.91,-586.637,463.767,-586.637,1128.47,435.451,463.767,435.451,1924.71,10,516,584,671,683,1675
1826.13,0.00857568,0.00229277,-0.0041954,0.00376077,-0.0041954,-0.00295771,0.00399779,0.00376077,0.00399779,0.00093765,453.944,-589.296,530.635,-589.296,-306.272,573.467,530.635,573.467,241.684,10,516,671,683,684,1676
2796.2,0.0132147,0.00759874,-0.00745208,0.00465078,-0.00745208,-0.00422687,0.00431495,0.00465078,0.00431495,0.000858816,4076.96,-1034.65,642.59,-1034.65,2368.8,622.398,642.59,622.398,3088.76,10,516,517,671,684,1677
1647.58,0.00775694,0.00202478,0.00449032,-0.00323481,0.00449032,-0.00257905,0.00263115,-0.00323481,0.00263115,0.00233759,1568.38,632.49,-456.933,632.49,904.449,377.352,-456.933,377.352,1597.28,10,355,377,381,572,1678
4085.83,0.0193621,0.00979743,0.0132271,-0.00258934,0.0132271,-0.00654307,0.00567458,-0.00258934,0.00567458,0.00291784,5612.53,1837.49,-354.545,1837.49,3249.46,810.126,-354.545,810.126,4606.33,10,378,383,573,574,1679
1894.47,0.00890583,0.00202177,0.00451571,-0.00388654,0.00451571,-0.00268075,0.00415579,-0.00388654,0.00415579,0.00155952,881.648,634.196,-549.732,634.196,201.655,595.762,-549.732,595.762,795.053,10,377,381,382,572,1680
4030.64,0.0188683,-0.00392018,0.00890004,-0.00823705,0.00890004,0.00643237,0.00921538,-0.00823705,0.00921538,-0.00371401,-1881.42,1242.85,-1179.88,1242.85,-411.211,1322.7,-1179.88,1322.7,-1898.63,10,378,557,558,573,1681
9512.23,0.0419373,0.0104446,0.00259142,-0.0228114,0.00259142,-0.0432359,-0.00071147,-0.0228114,-0.00071147,-0.00179349,-26881.5,109.922,-3439.83,109.922,-35062.1,-211.019,-3439.83,-211.019,-28821.5,10,483,488,489,668,1682
7333.47,0.0345999,0.0249816,-0.013522,-0.0107285,-0.013522,0.00221342,-0.00611271,-0.0107285,-0.00611271,-0.0224423,5701.36,-1836.43,-1577.25,-1836.43,2511.08,-735.33,-1577.25,-735.33,-1084.51,10,400,452,465,664,1683
4504.51,0.0205862,0.0101011,0.0113382,0.00372033,0.0113382,-0.0136705,-0.000575912,0.00372033,-0.000575912,-0.0118609,-10733.6,1664.34,524.032,1664.34,-14189,-88.8774,524.032,-88.8774,-13937.2,10,418,599,600,604,1684
10658,0.0505194,0.0481868,-0.00356636,-0.00330778,-0.00356636,-0.0378582,0.00527039,-0.00330778,0.00527039,-0.000781257,10932.4,-514.514,-514.535,-514.514,-1199.24,586.557,-514.535,586.557,4098.09,10,398,399,451,668,1685
9234.38,0.0438262,0.0265767,0.0124591,0.0122978,0.0124591,-0.000946374,-0.0257792,0.0122978,-0.0257792,-0.0161749,8492.2,1706.96,1799.8,1706.96,4868.02,-3540.72,1799.8,-3540.72,2280.85,10,400,412,429,600,1686
7494.73,0.0346886,0.0236615,0.00539114,0.010636,0.00539114,-0.00494378,-0.0123512,0.010636,-0.0123512,-0.0254189,-3149.57,749.98,1597.54,749.98,-7088.31,-1630.09,1597.54,-1630.09,-10336.2,10,400,452,600,617,1687
6445.84,0.0301554,0.0141221,-0.00208812,0.00221655,-0.00208812,-0.0142974,-0.0216967,0.00221655,-0.0216967,-0.000552573,346.03,-313.663,304.151,-313.663,-3701.66,-3092.12,304.151,-3092.12,-1747.22,10,401,402,454,653,1688
5319.5,0.0251297,0.0154244,-0.00328334,-0.0025535,-0.00328334,-0.00894509,-0.0173038,-0.0025535,-0.0173038,-0.00179014,4937.76,-478.115,-378.324,-478.115,1542.89,-2446.68,-378.324,-2446.68,2479.25,10,401,465,471,653,1689
5555.92,0.0260017,0.00580215,0.00150302,0.000394435,0.00150302,-0.0170219,-0.0170158,0.000394435,-0.0170158,0.0103474,-657.976,226.853,65.0498,226.853,-3951.88,-2385.85,65.0498,-2385.85,37.5231,10,402,403,423,455,1690
5600.35,0.026613,0.0150393,0.00864857,0.010613,0.00864857,0.003874,-0.0133811,0.010613,-0.0133811,-0.0105584,7544.22,1191.77,1502.9,1191.77,6042.2,-1844.4,1502.9,-1844.4,3889.88,10,401,453,600,605,1691
7774.54,0.0361664,0.0179564,-0.000373502,-0.00591248,-0.000373502,-0.00381554,-0.0249812,-0.00591248,-0.0249812,-0.0176287,-1683.37,-65.3191,-882.668,-65.3191,-4664.67,-3533.34,-882.668,-3533.34,-6912.19,10,400,401,465,648,1692
5763.14,0.0265146,-0.00712436,0.0110251,-0.0166398,0.0110251,0.00196404,0.0102271,-0.0166398,0.0102271,-0.00585998,-10215.4,1557.71,-2432.57,1557.71,-8888.05,1474.92,-2432.57,1474.92,-10130.3,10,378,389,390,561,1693
4694.97,0.0222876,0.00250679,0.0135501,-0.00343883,0.0135501,-0.00649672,-0.00985338,-0.00343883,-0.00985338,0.0113954,5362.21,1888.83,-506.242,1888.83,4022.77,-1362.43,-506.242,-1362.43,6604.73,10,415,596,597,601,1694
1814.07,0.00847954,0.000598416,-0.00540378,0.00272384,-0.00540378,-0.00381946,0.00326194,0.00272384,0.00326194,0.000704942,-1890.99,-764.862,387.579,-764.862,-2535.24,473.22,387.579,473.22,-1893.68,10,516,521,683,684,1695
1956.67,0.00920421,0,0,0.00756253,0,0,0.00240464,0.00756253,0.00240464,0.00130078,895.77,5.15449,1073.04,5.15449,881.198,341.192,1073.04,341.192,1046.06,10,498,499,585,671,1696
5558.58,0.0259836,0.00509645,-0.00229285,0.000765563,-0.00229285,-0.0170219,-0.0170158,0.000765563,-0.0170158,0.0103474,-1286.98,-325.81,113.853,-325.81,-4488.56,-2388.48,113.853,-2388.48,-492.268,10,402,403,455,657,1697
5013.9,0.0234901,0.00277632,-0.0016653,0.00247032,-0.0016653,-0.0152772,-0.0145442,0.00247032,-0.0145442,0.0120757,-594.232,-236.202,350.991,-236.202,-3194.54,-2039.01,350.991,-2039.01,762.361,10,403,404,455,659,1698
3283.43,0.0153455,0.00282845,-0.00161696,0.00012725,-0.00161696,-0.0145586,-0.00458633,0.00012725,-0.00458633,0.00937007,-1665,-232.651,21.9703,-232.651,-4166.92,-591.949,21.9703,-591.949,-708.889,10,404,427,455,456,1699
5015.01,0.0233332,0.00622605,0.00201405,0.000714348,0.00201405,-0.0171545,-0.01485,0.000714348,-0.01485,0.00635646,-3232.15,303.165,108.138,303.165,-6609.69,-2101.54,108.138,-2101.54,-3179.01,10,402,423,455,609,1700
10394.6,0.0496086,0.0417563,-0.0140188,0.0177456,-0.0140188,-0.0300448,0.00632363,0.0177456,0.00632363,0.00179883,13168.6,-1835.9,2419.64,-1835.9,2959.87,809.157,2419.64,809.157,7570.75,10,398,434,438,621,1701
12257.5,0.0560386,0.0293258,0.00274134,0.00165324,0.00274134,-0.0578512,0.0103233,0.00165324,0.0103233,0.0176028,-7974.07,359.238,263.015,359.238,-20758.5,1215.1,263.015,1215.1,-9607.94,10,397,449,450,624,1702
12672.4,0.0580248,0.0448539,0.0050523,-0.0035574,0.0050523,-0.0539228,0.00655395,-0.0035574,0.00655395,-0.000734524,-5028.55,659.719,-527.951,659.719,-19475.9,705.243,-527.951,705.243,-11610.7,10,398,450,451,668,1703
9663.42,0.045039,0.0192076,0.0224953,-0.0157067,0.0224953,-0.0283855,0.0122556,-0.0157067,0.0122556,0.00792064,-463.046,3019.19,-2071.89,3019.19,-7874.46,1631.22,-2071.89,1631.22,-2174.39,10,450,488,668,670,1704
11589.7,0.051876,0.0304525,0.00820133,0.00937994,0.00820133,-0.0539228,0.00655395,0.00937994,0.00655395,-0.000734524,-17238.2,1123.76,1469.79,1123.76,-29856.2,725.28,1469.79,725.28,-21797.4,10,398,450,451,621,1705
9637.37,0.0439923,0.0195877,0.0245387,-0.0135658,0.0245387,-0.03026,0.00652027,-0.0135658,0.00652027,-0.00314566,-9726.01,3375.02,-1810.04,3375.02,-17599.3,856.748,-1810.04,856.748,-13232.9,10,450,451,488,668,1706
7519.72,0.035043,0.00873933,0.0176504,0.00577211,0.0176504,-0.021129,-0.0163541,0.00577211,-0.0163541,0.00983628,-2131.7,2458.63,803.634,2458.63,-6518.83,-2372.6,803.634,-2372.6,-2055.62,10,414,415,431,597,1707
6501.98,0.0309213,0.00491436,-0.00746554,0.0210894,-0.00746554,-0.00340576,0.0135406,0.0210894,0.0135406,0.00767031,6383.11,-987.858,3072.3,-987.858,5498.18,1813.43,3072.3,1813.43,6701.11,10,528,532,677,678,1708
7807.64,0.0365126,0.00698691,0.0172659,0.0110976,0.0172659,-0.009358,-0.0225449,0.0110976,-0.0225449,0.00207837,-901.974,2474.07,1600.33,2474.07,-3176.45,-3204.51,1600.33,-3204.51,-1563.26,10,413,414,419,598,1709
4426.98,0.0207114,0.00631926,0.00248938,0.00305525,0.00248938,-0.0106062,-0.0150427,0.00305525,-0.0150427,0.00284306,-709.947,349.198,437.068,349.198,-3125.83,-2143.27,437.068,-2143.27,-1210.04,10,423,605,608,693,1710
4160.45,0.0196699,0.00573238,0.00912835,0.00401111,0.00912835,-0.00591368,-0.0121781,0.00401111,-0.0121781,0.00497345,3952.73,1286.69,559.829,1286.69,2293.26,-1712.19,559.829,-1712.19,3859.35,10,419,603,604,607,1711
9905.21,0.045623,0.00698691,0.0179775,0.0119457,0.0179775,-0.0227057,-0.0282105,0.0119457,-0.0282105,0.00753166,-7814.31,2603.26,1781.08,2603.26,-11986.7,-4112.68,1781.08,-4112.68,-7787.1,10,413,414,430,598,1712
10011.2,0.0475679,0.000635259,0.0140741,0.0350457,0.0140741,0.00574533,-0.0162425,0.0350457,-0.0162425,0.00428248,5351.92,1829.46,5036.91,1829.46,6295.12,-2111.79,5036.91,-2111.79,5665.96,10,430,598,615,616,1713
5967.27,0.0268353,-0.0252183,-0.0126352,0.0020703,-0.0126352,-0.00777442,-0.00958599,0.0020703,-0.00958599,0.00849592,-23397,-1763.55,263.884,-1763.55,-20442.3,-1448.7,263.884,-1448.7,-18283,10,444,445,494,639,1714
1028.88,0.00480654,-0.00431489,-0.000815998,0.00277223,-0.000815998,-1.66706e-05,0.00035774,0.00277223,0.00035774,0.00139627,-2855.1,-115.472,401.112,-115.472,-2246.65,51.5993,401.112,51.5993,-2050.6,10,497,520,583,683,1715
4496.74,0.0210264,0.00784109,0.00999409,0.00355673,0.00999409,-0.0142895,-0.00869891,0.00355673,-0.00869891,0.00470164,-698.843,1380.75,473.453,1380.75,-3956.6,-1228.94,473.453,-1228.94,-1170.9,10,420,421,597,602,1716
6938.97,0.0326777,-0.00121324,0.025129,0.0103564,0.025129,-0.00284491,-0.00557019,0.0103564,-0.00557019,0.00753078,1105.2,3553.55,1481.81,3553.55,964.766,-790.922,1481.81,-790.922,2371.91,10,431,597,614,615,1717
2988.16,0.0140958,0.00601603,0.00590057,-0.000454274,0.00590057,-0.00955507,-0.00543102,-0.000454274,-0.00543102,0.00669531,3001.02,814.391,-78.8168,814.391,759.946,-743.067,-78.8168,-743.067,3104.2,10,420,421,602,606,1718
2618.98,0.0123051,-0.00140221,0.00524677,0.00160456,0.00524677,-0.00244527,-0.00832322,0.00160456,-0.00832322,0.00453634,146.559,741.577,220.147,741.577,-31.1149,-1178.01,220.147,-1178.01,994.229,10,410,421,589,606,1719
2598.33,0.0122552,0.00518351,0.00362097,-0.00020416,0.00362097,-0.00727647,-0.00693606,-0.00020416,-0.00693606,0.00509387,2826.75,485.457,-44.2506,485.457,1029.29,-971.76,-44.2506,-971.76,2812.52,10,416,588,596,601,1720
3799.24,0.0177714,0.00310046,0.00758335,-0.00283265,0.00758335,-0.0140957,-0.00497266,-0.00283265,-0.00497266,0.00926866,-1216.28,1041.67,-425.256,1041.67,-3741.02,-664,-425.256,-664,-349.548,10,415,416,422,601,1721
5242.07,0.0247469,0.00790693,0.0126487,0.00159152,0.0126487,-0.00798088,-0.0150785,0.00159152,-0.0150785,0.00431615,3612.58,1744.58,192.489,1744.58,1278.47,-2141.29,192.489,-2141.29,3074.87,10,415,421,597,601,1722
4273.76,0.0199209,0.00562034,-0.0126652,-0.00266676,-0.0126652,-0.0134283,-0.0042441,-0.00266676,-0.0042441,0.00410629,-2443.22,-1786.79,-368.926,-1786.79,-5237.9,-605.389,-368.926,-605.389,-2690.93,10,442,641,642,690,1723
8911.83,0.0419351,0.0133309,-0.0267779,-0.0136333,-0.0267779,-0.0163695,-0.0130657,-0.0136333,-0.0130657,0.00709789,2723.02,-3840.34,-1935.02,-3840.34,-1345.47,-1827.92,-1935.02,-1827.92,1915.51,10,467,646,662,663,1724
8063.59,0.0378267,0.00337387,0.00320578,0.0213078,0.00320578,0.00293759,-0.0242615,0.0213078,-0.0242615,-0.00462415,47.9227,337.822,3149.02,337.822,155.838,-3304.61,3149.02,-3304.61,-1367.77,10,429,430,599,616,1725
7995.42,0.0377065,0.0103944,-0.0241171,-0.0117132,-0.0241171,-0.0124486,-0.0139979,-0.0117132,-0.0139979,0.00693114,3367.75,-3427.14,-1664.44,-3427.14,217.465,-1973.68,-1664.44,-1973.68,2910.85,10,467,646,647,651,1726
5956.73,0.027716,-0.000128481,-0.0113012,-0.0015947,-0.0113012,-0.00841443,-0.0201006,-0.0015947,-0.0201006,0.00433254,-4145.12,-1610.68,-233.694,-1610.68,-5342.06,-2876.97,-233.694,-2876.97,-3466.64,10,472,652,655,656,1727
6688.9,0.0311737,0.00525022,-0.0194005,-0.00361551,-0.0194005,-0.0154156,-0.0134857,-0.00361551,-0.0134857,0.00725835,-2592.02,-2742.57,-493.568,-2742.57,-5653.85,-1936.77,-493.568,-1936.77,-2344.98,10,468,645,646,662,1728
5055.11,0.0242116,-0.0019009,0.0138118,-0.0123155,0.0138118,0.00529172,0.00799076,-0.0123155,0.00799076,0.00952385,8703.47,1873.87,-1768.93,1873.87,9838.71,1102.49,-1768.93,1102.49,10280.8,10,380,559,560,563,1729
985.001,0.00463315,0.00285094,0.00245748,-0.000896688,0.00245748,-0.00301074,9.64711e-05,-0.000896688,9.64711e-05,0.00132418,1261.24,344.146,-125.924,344.146,422.424,15.9013,-125.924,15.9013,1039.01,10,381,385,386,576,1730
4077.96,0.0191758,-0.0017447,-0.006307,0.0139222,-0.006307,0.00648563,0.00384467,0.0139222,0.00384467,-0.00323156,469.51,-877.004,1977.74,-877.004,1622.15,538.977,1977.74,538.977,197.286,10,526,671,672,675,1731
9391.37,0.0435387,0.00537968,-0.0310829,0.00879954,-0.0310829,-0.0206566,0.00984934,0.00879954,0.00984934,0.010663,-4968.84,-4410.33,1302.17,-4410.33,-8866.77,1507.67,1302.17,1507.67,-4359.81,10,519,673,674,686,1732
7160.08,0.0337124,0.00739245,-0.0248571,0.00930195,-0.0248571,-0.0113221,0.00559328,0.00930195,0.00559328,0.00738653,2378.97,-3473.85,1316.09,-3473.85,-470.969,835.223,1316.09,835.223,2251.41,10,518,519,673,686,1733
1350.85,0.00635032,0.00423224,-0.00294865,0.00169862,-0.00294865,-0.00433101,-5.64654e-05,0.00169862,-5.64654e-05,0.000945036,1197.68,-411.321,238.052,-411.321,-28.9442,-4.43947,238.052,-4.43947,721.19,10,520,683,687,688,1734
6068.16,0.0291444,-0.00714322,-0.00285355,0.0207719,-0.00285355,0.0133163,0.0090471,0.0207719,0.0090471,0.00881405,9221.06,-125.506,2958.07,-125.506,12208.2,1058.47,2958.07,1058.47,11401.1,10,528,529,532,678,1735
6965.63,0.0326518,-0.00345117,0.0252413,0.00197699,0.0252413,-0.00991111,0.00216518,0.00197699,0.00216518,0.0140639,-1321.47,3597.67,245.756,3597.67,-2133.7,342.457,245.756,342.457,1215.61,10,368,552,553,560,1736
7544.44,0.0352866,0.0116958,-0.0113979,-0.0180121,-0.0113979,-0.00415366,-0.0192705,-0.0180121,-0.0192705,-0.00789376,-144.336,-1602.14,-2613.82,-1602.14,-2258.5,-2707.4,-2613.82,-2707.4,-3039.75,10,466,647,648,652,1737
2331.55,0.0109099,0,-0.00512853,0,-0.00512853,-0.00181524,-0.00786572,0,-0.00786572,0,-1506.57,-729.22,11.4946,-729.22,-1797.81,-1118.42,11.4946,-1118.42,-1496.43,10,462,479,628,629,1738
6214.52,0.0291459,0.00925087,-0.00582098,0.000531343,-0.00582098,-0.0146702,-0.0208345,0.000531343,-0.0208345,0.00609103,790.558,-811.695,92.3204,-811.695,-2657.4,-2944.12,92.3204,-2944.12,369.779,10,402,476,653,657,1739
5339.58,0.0251293,0.00593907,-0.00445356,0.0012811,-0.00445356,-0.011482,-0.0183827,0.0012811,-0.0183827,0.00795308,1895.29,-634.231,186.623,-634.231,-603.474,-2586.97,186.623,-2586.97,2207.87,10,402,455,476,657,1740
8087.67,0.0384425,0.025245,-0.00467354,-0.0135482,-0.00467354,-0.003163,-0.0227611,-0.0135482,-0.0227611,-0.0123996,9041.83,-623.593,-1909.72,-623.593,5183.93,-3157.73,-1909.72,-3157.73,3616.25,10,400,465,648,664,1741
11313.1,0.0506787,0.0284313,0.00815092,0.00765347,0.00815092,-0.0535304,0.00766885,0.00765347,0.00766885,0.00119734,-17175.3,1132.51,1216.55,1132.51,-29426.5,894.551,1216.55,894.551,-21126.5,10,398,450,621,624,1742
9550.33,0.0434429,-0.00895225,-0.0205114,-0.0269584,-0.0205114,-0.0109178,-0.0142356,-0.0269584,-0.0142356,0.00396224,-15920.4,-2921.74,-4083.2,-2921.74,-15741.3,-1998.22,-4083.2,-1998.22,-13939.1,10,484,662,663,667,1743
7537.38,0.0356397,0.0115419,-0.0155522,-0.0203248,-0.0155522,-0.0050549,-0.0149893,-0.0203248,-0.0149893,-0.000276211,4662.63,-2210.76,-2938.25,-2210.76,2572.52,-2053.11,-2938.25,-2053.11,3045.27,10,466,484,647,664,1744
5071.08,0.0241035,0.00996654,0.011225,0.00485938,0.011225,-0.00185618,-0.0156908,0.00485938,-0.0156908,0.000191968,6944.16,1562.98,691.611,1562.98,5329.93,-2209.25,691.611,-2209.25,5540.88,10,418,600,604,605,1745
8558.43,0.0408334,0.0203099,-0.0136258,-0.0258373,-0.0136258,-0.0104698,-0.01258,-0.0258373,-0.01258,0.00235283,9940.41,-1966.79,-3698.75,-1966.79,5954.86,-1669.2,-3698.75,-1669.2,7375.23,10,484,663,667,668,1746
10267.3,0.0460728,0.0340725,-0.00699994,-0.00294894,-0.00699994,-0.0430083,-0.00371074,-0.00294894,-0.00371074,-0.0147438,-15533.5,-1087.85,-498.93,-1087.85,-26918,-684.496,-498.93,-684.496,-22810.2,10,399,400,451,664,1747
12973.6,0.0608573,0.0328458,0.0324473,0.00199778,0.0324473,-0.0440542,0.00899884,0.00199778,0.00899884,0.0164076,4330.25,4215.93,404.235,4215.93,-7276.38,1039.34,404.235,1039.34,1724.64,10,397,450,492,670,1748
3287.55,0.0153745,0.00244591,-0.00114888,0.000964016,-0.00114888,-0.0123295,-0.00808972,0.000964016,-0.00808972,0.00790458,-1432.36,-162.108,139.052,-162.108,-3570.29,-1112.21,139.052,-1112.21,-621.939,10,455,456,480,659,1749
3330.41,0.015582,0.00246861,0.000594761,0.000914997,0.000594761,-0.0118296,-0.00888863,0.000914997,-0.00888863,0.00766338,-1224.46,89.568,131.271,89.568,-3294.26,-1229.21,131.271,-1229.21,-451.058,10,427,455,456,612,1750
9417.47,0.0419309,0.0112099,0.0164219,-0.0202181,0.0164219,-0.0376981,-0.00153857,-0.0202181,-0.00153857,-0.00231258,-22163.5,2304.17,-2909.77,2304.17,-29876.9,-354.723,-2909.77,-354.723,-24483.5,10,451,483,488,668,1751
8573.19,0.039904,0.0103944,-0.023179,-0.0105953,-0.023179,-0.0175894,-0.0180881,-0.0105953,-0.0180881,0.00448368,-2577.86,-3344.14,-1539.43,-3344.14,-6484.6,-2587.74,-1539.43,-2587.74,-3389.21,10,467,646,647,663,1752
10154.3,0.0484757,0.0180367,-0.0330997,-0.00138503,-0.0330997,-0.0023244,-0.0229756,-0.00138503,-0.0229756,-0.00215229,9869.99,-4665.36,-293.589,-4665.36,7203.71,-3160.13,-293.589,-3160.13,7032.21,10,467,647,651,652,1753
5540.4,0.0263469,0.00626261,-0.0108764,-0.00309824,-0.0108764,-0.0113902,-0.0149861,-0.00309824,-0.0149861,0.0138893,6623.75,-1527.98,-453.632,-1527.98,4183.58,-2108.77,-453.632,-2108.77,7698.86,10,466,472,652,653,1754
4932.61,0.0230609,0.00844041,-0.00507638,-0.00230565,-0.00507638,-0.00530479,-0.0175173,-0.00230565,-0.0175173,-0.00483833,-730.525,-718.868,-328.625,-718.868,-2669.03,-2498.79,-328.625,-2498.79,-2651.67,10,454,471,476,653,1755
12189.1,0.0573487,0.0418901,0.0040349,0.00591964,0.0040349,-0.0512055,-0.0105388,0.00591964,-0.0105388,0.0156574,6681.67,234.992,803.891,234.992,-6642.08,-1174.28,803.891,-1174.28,3051.65,10,363,447,536,682,1756
4203.92,0.01977,0.0097079,-0.00930304,-0.00172397,-0.00930304,-0.0144101,-0.00576377,-0.00172397,-0.00576377,0.00630569,2139.92,-1282.3,-220.854,-1282.3,-1354.74,-788.352,-220.854,-788.352,1645.49,10,468,474,650,696,1757
9176.72,0.0390665,0.0150443,-0.00949817,-0.00256319,-0.00949817,-0.0442659,0.0111895,-0.00256319,0.0111895,-0.0259993,-41919.5,-1631,-261.779,-1631,-50815.5,1969.67,-261.779,1969.67,-48611.1,10,362,504,505,535,1758
9889.29,0.0457557,-0.000230737,0.00719789,0.0263844,0.00719789,-0.0312538,-0.00228594,0.0263844,-0.00228594,0.0258419,-6719.6,918.339,3745.92,918.339,-11368.5,-284.131,3745.92,-284.131,-2984.3,10,533,638,678,682,1759
12654.9,0.0591181,0.0145581,0.0224939,0.00914324,0.0224939,-0.048711,0.0084589,0.00914324,0.0084589,0.0365707,-141.283,2811.31,1350.3,2811.31,-9705.75,1241.49,1350.3,1241.49,2674.67,10,446,637,638,682,1760
10149.3,0.0481792,0.0333831,-0.00662589,-0.00082991,-0.00662589,-0.0389153,-0.0165938,-0.00082991,-0.0165938,0.015745,9510.92,-1032.33,-70.74,-1032.33,-844.94,-1879.05,-70.74,-1879.05,7294.64,10,362,363,505,536,1761
17060.9,0.0770988,0.0294486,-0.0241873,-0.0129002,-0.0241873,-0.07447,-0.00503547,-0.0129002,-0.00503547,0.0317554,-13081.8,-2946.37,-1837.31,-2946.37,-28982.9,-651.579,-1837.31,-651.579,-13032.5,10,363,365,396,556,1762
13213.3,0.0618773,0.0204664,-0.0275187,-0.00749933,-0.0275187,-0.0495433,0.00795341,-0.00749933,0.00795341,0.0335081,1815.92,-3500.65,-1097.45,-3500.65,-8776.23,1159.59,-1097.45,1159.59,3304.76,10,365,366,396,555,1763
9858.89,0.046184,0.0251296,0.00982589,-0.0056175,0.00982589,-0.0389153,-0.0165938,-0.0056175,-0.0165938,0.015745,2404.49,1411.73,-866.019,1411.73,-6918.65,-1905.28,-866.019,-1905.28,1332.87,10,362,363,505,571,1764
5724.71,0.0273591,0.0125003,0.00874692,-0.014794,0.00874692,-0.014657,-0.00246544,-0.014794,-0.00246544,0.0139778,9874.38,1045.73,-2056.19,1045.73,5855.22,-323.166,-2056.19,-323.166,9957.51,10,489,667,668,670,1765
10909.8,0.0505291,0.0391477,0.00553622,0.0131415,0.00553622,-0.0435225,-0.00110806,0.0131415,-0.00110806,8.7173e-05,-711.728,770.943,1946.45,770.943,-12562.5,-383.017,1946.45,-383.017,-6314.94,10,399,429,434,451,1766
8973.76,0.0415982,0.0107995,0.0141447,0.011275,0.0141447,-0.00712411,-0.0292226,0.011275,-0.0292226,-0.00860328,-4370.1,2003.01,1719.88,2003.01,-6633.42,-4178.7,1719.88,-4178.7,-7343.41,10,412,413,429,599,1767
12937.6,0.0616385,0.047549,0.00439007,-0.00562732,0.00439007,-0.0516956,0.0138118,-0.00562732,0.0138118,0.0188121,13039.9,552.69,-770.28,552.69,-960.035,1651.88,-770.28,1651.88,9122.02,10,397,398,450,670,1768
6439.14,0.0298766,0.00916926,0.00531233,0.00561007,0.00531233,-0.0142974,-0.0216967,0.00561007,-0.0216967,-0.000552573,-4089.22,785.67,824.857,785.67,-7441.19,-3112.23,824.857,-3112.23,-5473.93,10,401,402,454,605,1769
7166.68,0.0335938,0.0015149,0.0194884,0.0099802,0.0194884,-0.00480169,-0.0186044,0.0099802,-0.0186044,0.00407708,-572.412,2755.75,1429.72,2755.75,-1456.69,-2660.97,1429.72,-2660.97,-228.521,10,414,419,420,598,1770
5883.27,0.0275201,0.00862145,0.00431952,0.00466866,0.00431952,-0.00724802,-0.0214802,0.00466866,-0.0214802,-0.00241215,-486.713,616.128,679.003,616.128,-2698.63,-3064.01,679.003,-3064.01,-2099.62,10,402,418,423,605,1771
1198.67,0.00563832,0.00215733,-0.00334062,0.00227866,-0.00334062,-0.00160824,0.00197484,0.00227866,0.00197484,0.000646201,1178.04,-469.395,319.645,-469.395,631.854,284.926,319.645,284.926,949.678,10,497,516,520,683,1772
8421.56,0.0394236,0.00997841,-0.0101124,-0.0278998,-0.0101124,-0.00139578,-0.0142372,-0.0278998,-0.0142372,-0.00795221,-25.2791,-1402.63,-4036.07,-1402.63,-1469.91,-1901.61,-4036.07,-1901.61,-2680.83,10,484,647,663,664,1773
4075.85,0.0191735,0.00644065,0.00317158,4.41785e-05,0.00317158,-0.0129275,-0.0113118,4.41785e-05,-0.0113118,0.00823497,1784.12,449.464,6.12926,449.464,-977.27,-1586.32,6.12926,-1586.32,2058.19,10,423,605,608,609,1774
11009.6,0.0507272,0.0400182,-0.0097546,-0.0112308,-0.0097546,-0.0425236,-0.001017,-0.0112308,-0.001017,-0.00485931,-2893.3,-1393.8,-1675.72,-1393.8,-14800.1,-331.855,-1675.72,-331.855,-9393.2,10,399,451,664,668,1775
10234.8,0.0459515,0.0343667,0.00386699,0.00468964,0.00386699,-0.0430083,-0.00371074,0.00468964,-0.00371074,-0.0147438,-15251.3,621.023,755.967,621.023,-26677.9,-682.785,755.967,-682.785,-22563.5,10,399,400,429,451,1776
8896.68,0.0405929,-0.0145573,0.006429,0.0215992,0.006429,0.00322211,-0.0254339,0.0215992,-0.0254339,-0.00317687,-15177.9,749.023,3305.39,749.023,-12319.8,-3585.31,3305.39,-3585.31,-13712,10,430,598,599,616,1777
6368.1,0.0309918,0.0271112,0.0061008,0.0173211,0.0061008,-0.00442466,-0.00974702,0.0173211,-0.00974702,0.000457836,19914.7,833.764,2446.35,833.764,15803.3,-1297.28,2446.35,-1297.28,16189.8,10,429,434,451,617,1778
5741.64,0.0268701,0.000472958,-0.0157036,-0.00379245,-0.0157036,-0.0113868,-0.0128329,-0.00379245,-0.0128329,0.0101,-1411.03,-2221.95,-535.059,-2221.95,-3148.23,-1831.52,-535.059,-1831.52,-50.3479,10,468,646,650,696,1779
9841.89,0.0448905,-0.0234666,-0.0285436,-0.0163926,-0.0285436,0.00287957,-0.0126629,-0.0163926,-0.0126629,0.00650228,-16797.3,-4042.83,-2509.62,-4042.83,-12565.5,-1824.36,-2509.62,-1824.36,-12332.1,10,490,491,662,666,1780
5634,0.0264479,0.00525023,-0.0166169,-0.000298182,-0.0166169,-0.0122637,-0.0112912,-0.000298182,-0.0112912,0.00801235,670.486,-2343.8,-22.8427,-2343.8,-1880.29,-1593.78,-22.8427,-1593.78,1056.39,10,468,645,646,650,1781
10186.6,0.047903,0.014411,0.0266098,0.0220949,0.0266098,-0.0173125,-0.0157185,0.0220949,-0.0157185,0.00739753,2529.3,3820.14,3174.47,3820.14,-1747.72,-2206.7,3174.47,-2206.7,1585.34,10,414,430,431,615,1782
5650.34,0.026544,0.00819043,0.017438,0.00293811,0.017438,-0.0128384,-0.00903024,0.00293811,-0.00903024,0.00609438,1446.07,2448.56,392.891,2448.56,-1657.05,-1261.03,392.891,-1261.03,1112.84,10,416,433,613,694,1783
3637.1,0.0169987,0.00197733,0.00800174,-0.00176633,0.00800174,-0.0132433,-0.00450521,-0.00176633,-0.00450521,0.00899787,-1753.21,1111.07,-272.811,1111.07,-3995.09,-603.287,-272.811,-603.287,-766.924,10,415,416,596,601,1784
4002.59,0.0187646,0.00707552,0.00817082,0.00248409,0.00817082,-0.0107575,-0.0101308,0.00248409,-0.0101308,0.00335884,372.487,1114.16,318.461,1114.16,-2258.73,-1439.34,318.461,-1439.34,-178.382,10,421,597,601,602,1785
5489.6,0.0257834,-0.00159354,-0.0147418,-0.00227867,-0.0147418,-0.00437294,-0.0154743,-0.00227867,-0.0154743,0.00721773,-120.018,-2092.6,-326.486,-2092.6,-486.251,-2184.91,-326.486,-2184.91,1199.17,10,472,651,652,655,1786
7314.42,0.0354075,0.00266594,0.00530672,0.0247388,0.00530672,0.00628135,-0.0167578,0.0247388,-0.0167578,0.0114023,14223.5,581.726,3518.75,581.726,14830.3,-2213.19,3518.75,-2213.19,15135.2,10,429,430,435,616,1787
9311.66,0.0440045,0.0193014,0.00285531,0.0296863,0.00285531,-0.0235102,-0.00689793,0.0296863,-0.00689793,0.0109811,5642.61,494.991,4224.99,494.991,-374.525,-966.561,4224.99,-966.561,4203.51,10,434,435,616,620,1788
10356.3,0.0487167,0.0433465,3.88835e-05,0.00997588,3.88835e-05,-0.0378582,0.00527039,0.00997588,0.00527039,-0.000781257,6841.26,-33.2223,1461.49,-33.2223,-4685.03,587.886,1461.49,587.886,672.739,10,398,399,434,451,1789
8309.58,0.0391596,0.0270287,-0.00279492,0.0165582,-0.00279492,-0.000991204,-0.0165987,0.0165582,-0.0165987,-0.0214628,5445.36,-434.058,2348.72,-434.058,1633.56,-2181.95,2348.72,-2181.95,-1633,10,400,429,600,617,1790
7106.51,0.0333275,0.00297685,0.0201694,0.0129618,0.0201694,-0.00357146,-0.0156926,0.0129618,-0.0156926,0.00164153,-126.776,2826.27,1877.88,2826.27,-1020.55,-2261.24,1877.88,-2261.24,-428.332,10,414,431,597,615,1791
4365.09,0.0205223,0.00833728,0.00738533,-0.000964714,0.00738533,-0.0168942,-0.00573387,-0.000964714,-0.00573387,0.0100428,1801.59,1025.47,-156.992,1025.47,-1822.58,-752.808,-156.992,-752.808,2056.93,10,419,420,425,607,1792
5820.43,0.0279675,0.0146195,0.0101739,0.0113723,0.0101739,-0.00163929,-0.0167795,0.0113723,-0.0167795,0.00219136,12483.6,1410.26,1593.33,1410.26,10272.6,-2325.47,1593.33,-2325.47,10741.9,10,401,418,600,605,1793
3087.05,0.0144891,0.00668883,0.00501681,0.00116625,0.00501681,-0.0117093,-0.00516127,0.00116625,-0.00516127,0.00516982,828.646,673.639,153.021,673.639,-1830.54,-728.163,153.021,-728.163,596.373,10,370,416,417,550,1794
3073.58,0.0145285,0.0060571,-0.00136856,-0.00632277,-0.00136856,-0.00647253,-0.00829341,-0.00632277,-0.00829341,0.00482098,3914.72,-221.762,-899.852,-221.762,2130.08,-1141.66,-899.852,-1141.66,3778.24,10,425,591,607,610,1795
1091.61,0.00514412,5.13121e-05,0.00305588,-0.000466753,0.00305588,-0.000277724,-0.00282377,-0.000466753,-0.00282377,0.00250754,1700.88,431.028,-73.4841,431.028,1634.61,-394.286,-73.4841,-394.286,2052.95,10,410,421,422,589,1796
4036.03,0.0191667,0.00984881,0.0116978,4.17755e-05,0.0116978,-0.00822767,-0.00697377,4.17755e-05,-0.00697377,0.00581797,6587.69,1607.71,-10.4471,1607.71,3958.91,-974.608,-10.4471,-974.608,5982.23,10,416,550,595,613,1797
8111.69,0.0352968,0.00221206,0.00132846,0.0121862,0.00132846,-0.0450027,-0.00875183,0.0121862,-0.00875183,-0.000166125,-34038.8,301.253,1914.5,301.253,-41129.8,-1586.41,1914.5,-1586.41,-34539.6,10,434,616,617,621,1798
3275.23,0.0153038,0.00343076,0.0070861,0.00129423,0.0070861,-0.011533,-0.00605643,0.00129423,-0.00605643,0.0056092,-1652.3,983.342,171.42,983.342,-3842.54,-861.715,171.42,-861.715,-1364.46,10,416,417,550,595,1799
2497.03,0.0117503,0.00482306,0.003181,0.0015417,0.003181,-0.00862041,-0.00530558,0.0015417,-0.00530558,0.00539351,1728.88,431.97,210.761,431.97,-193.882,-752.642,210.761,-752.642,1801.88,10,417,549,550,595,1800
3193.38,0.0149132,0.0045208,-0.00631232,-0.000102752,-0.00631232,-0.0124533,-0.00524791,-0.000102752,-0.00524791,0.0050961,-1747.79,-873.799,-3.0627,-873.799,-4216.02,-739.943,-3.0627,-739.943,-1679.83,10,441,470,643,660,1801
5049.36,0.0236299,0.005422,0.0126324,0.0123617,0.0126324,-0.00618877,-0.00852568,0.0123617,-0.00852568,-0.000311023,-812.708,1754.94,1875.01,1754.94,-2164.65,-1198.66,1875.01,-1198.66,-1657.3,10,429,434,616,617,1802
3361.04,0.0157624,0.00710229,-0.00601783,0.000948468,-0.00601783,-0.0128932,-0.00506792,0.000948468,-0.00506792,0.00551655,521.343,-819.712,147.131,-819.712,-2368.2,-707.577,147.131,-707.577,281.446,10,441,642,643,660,1803
2187.2,0.0103264,0.00526044,-0.00382121,-0.000119953,-0.00382121,-0.00656695,-0.00450793,-0.000119953,-0.00450793,0.00484221,3290.27,-522.793,-9.47448,-522.793,1596.49,-633.255,-9.47448,-633.255,3223.72,10,440,441,470,643,1804
6922.13,0.0322125,0.00235705,-0.0245837,-0.00651896,-0.0245837,-0.0123499,-0.00590202,-0.00651896,-0.00590202,0.00629135,-3678.35,-3506.27,-921.194,-3506.27,-5904.37,-841.588,-921.194,-841.588,-3164.35,10,443,641,660,665,1805
5132.47,0.0239961,0.00232637,-0.0161305,-0.00406434,-0.0161305,-0.0118086,-0.00722508,-0.00406434,-0.00722508,0.00786834,-1517.25,-2266.43,-559.243,-2266.43,-3685.23,-1036.1,-559.243,-1036.1,-798.941,10,443,487,491,660,1806
4657.48,0.0216961,0.00420867,-0.014306,-0.00550661,-0.014306,-0.0133257,-0.0031192,-0.00550661,-0.0031192,0.00515676,-2910.86,-2017.48,-777.236,-2017.48,-5525.23,-454.824,-777.236,-454.824,-2831.52,10,523,641,686,690,1807
2284.2,0.01074,0.00588483,-0.00715951,-0.00100962,-0.00715951,-0.00539669,0.00154146,-0.00100962,0.00154146,0.000583439,1520,-1001.81,-144.522,-1001.81,-110.962,221.12,-144.522,221.12,752.231,10,521,522,524,689,1808
8116.65,0.0376266,0.00688686,-0.0285641,-0.00687095,-0.0285641,-0.0180695,-0.000198281,-0.00687095,-0.000198281,0.00576056,-4784.97,-4085.28,-968.379,-4085.28,-8496.36,-19.2575,-968.379,-19.2575,-5007.77,10,519,640,641,686,1809
3488.96,0.0165206,0.00925686,-0.00848148,0.0010969,-0.00848148,-0.00921907,-0.00601517,0.0010969,-0.00601517,0.00550594,5185.07,-1158.44,173.364,-1158.44,2506.75,-827.237,173.364,-827.237,4635.67,10,469,475,644,697,1810
6952.81,0.0325391,-0.0103527,-0.0249059,-0.00194992,-0.0249059,-0.00191527,-0.00653509,-0.00194992,-0.00653509,0.0119891,-3224.5,-3497.43,-342.055,-3497.43,-1524.32,-933.582,-342.055,-933.582,177.412,10,444,490,494,666,1811
4583.28,0.021357,0.000766024,0.0109512,0.000519622,0.0109512,-0.0153244,-0.00697759,0.000519622,-0.00697759,0.0107608,-3265.96,1527.55,46.7571,1527.55,-5686.02,-968.932,46.7571,-968.932,-1870.1,10,416,596,613,694,1812
3733.19,0.01771,0.0120878,-0.00913403,-0.00426104,-0.00913403,-0.00958209,-0.00364921,-0.00426104,-0.00364921,0.00421911,6423.83,-1244.03,-586.916,-1244.03,3308.96,-520.046,-586.916,-520.046,5281.49,10,441,523,525,690,1813
3510.01,0.0165424,0.00789446,-0.00940564,-0.0010639,-0.00940564,-0.0100504,-0.00482785,-0.0010639,-0.00482785,0.00487898,2864.74,-1306.31,-140.416,-1306.31,270.617,-676.66,-140.416,-676.66,2416.77,10,441,470,487,660,1814
5014.99,0.0233286,0.00339194,-0.0158043,-0.00405184,-0.0158043,-0.0139148,-0.00510355,-0.00405184,-0.00510355,0.00583559,-3654.85,-2226.74,-567.564,-2226.74,-6271.4,-741.072,-567.564,-741.072,-3373.7,10,442,443,487,660,1815
5307.5,0.0251242,0.00903125,-0.0186878,-0.00505017,-0.0186878,-0.00898743,-0.0024771,-0.00505017,-0.0024771,0.00586405,5038.78,-2597.01,-698.004,-2597.01,2352.72,-362.838,-698.004,-362.838,4513.27,10,442,519,523,641,1816
4637.87,0.0218007,0.00667222,-0.013186,-0.00146812,-0.013186,-0.00714863,-0.0114502,-0.00146812,-0.0114502,0.00192923,1451.83,-1871.77,-229.359,-1871.77,-450.264,-1638.97,-229.359,-1638.97,763.909,10,466,471,472,653,1817
5743.52,0.0270336,0.00805794,0.0194564,0.00490408,0.0194564,-0.0129229,-0.00160497,0.00490408,-0.00160497,0.00749967,2329.22,2711.26,675.684,2711.26,-818.861,-227.573,675.684,-227.573,2161.4,10,369,551,552,575,1818
6985.1,0.0326842,-0.00345117,0.0255862,2.07402e-05,0.0255862,-0.00572051,-0.00925282,2.07402e-05,-0.00925282,0.00878993,-2133.89,3650.72,21.7499,3650.72,-2348.56,-1316.62,21.7499,-1316.62,-351.299,10,368,552,553,618,1819
3661.37,0.0171364,0.00767425,0.0068729,0.00395562,0.0068729,-0.0143873,-0.00326929,0.00395562,-0.00326929,0.00530241,-294.222,924.34,551.406,924.34,-3508.43,-465.915,551.406,-465.915,-664.127,10,370,388,550,551,1820
4071.28,0.0192744,0.0143925,0.00992504,0.00383782,0.00992504,-0.0113052,9.09822e-06,0.00383782,9.09822e-06,0.00249088,5826.57,1350.79,530.154,1350.79,2131.16,-6.56146,530.154,-6.56146,4105.76,10,388,550,579,581,1821
8642.95,0.0405059,-0.0110019,0.0331749,0.00373342,0.0331749,0.0021055,-0.00032252,0.00373342,-0.00032252,0.0103482,-2540.57,4710.61,490.451,4710.61,-564.004,-3.68669,490.451,-3.68669,564.147,10,369,437,613,618,1822
5840.58,0.0275863,0.00805795,0.019833,0.00276833,0.019833,-0.0109647,-0.00717369,0.00276833,-0.00717369,0.00768136,3901.21,2754.92,374.555,2754.92,1038.69,-1019.05,374.555,-1019.05,3759.09,10,369,551,552,618,1823
9557.19,0.0443383,-0.011556,0.0356584,0.00442607,0.0356584,-0.00410695,-0.0066311,0.00442607,-0.0066311,0.0115688,-7275.25,5119.57,638.456,5119.57,-6045,-924.591,638.456,-924.591,-3869.56,10,368,369,437,618,1824
8759.14,0.0407981,0.00697848,0.0295479,0.00770764,0.0295479,-0.018461,-0.00887282,0.00770764,-0.00887282,0.00929448,-2674.64,4210.43,1109.18,4210.43,-6375.74,-1292.87,1109.18,-1292.87,-2389.68,10,431,432,437,614,1825
7900.14,0.0369793,-0.0220955,0.0241711,0.00567632,0.0241711,0.0135882,-0.00582642,0.00567632,-0.00582642,0.00880708,-4830.98,3260.43,839.35,3260.43,722.653,-782.541,839.35,-782.541,-199.904,10,436,553,618,619,1826
2466.6,0.0116273,0.00490611,-0.0019399,-0.00238785,-0.0019399,-0.00588536,-0.00756282,-0.00238785,-0.00756282,0.00361666,2526.47,-256.597,-324.415,-256.597,979.436,-1068.75,-324.415,-1068.75,2343.9,10,475,630,644,649,1827
1627.67,0.00769618,0.00373671,-1.35946e-05,0.000562293,-1.35946e-05,0.000615823,-0.00633277,0.000562293,-0.00633277,7.37659e-06,3742.13,1.87232,86.055,1.87232,3286.57,-892.841,86.055,-892.841,3231.59,10,475,629,630,649,1828
7627.19,0.035551,0.0102729,-0.00796457,-0.0263408,-0.00796457,0.000442959,-0.0072549,-0.0263408,-0.0072549,-0.0131221,-1918.22,-1088.46,-3805.84,-1088.46,-3178.28,-875.645,-3805.84,-875.645,-5318.7,10,466,483,484,664,1829
1082.87,0.00510773,0.00281125,-0.00166748,0.00133475,-0.00166748,-0.00066815,-0.00345445,0.00133475,-0.00345445,0.000704822,2517.23,-230.903,194.127,-230.903,2007.28,-484.18,194.127,-484.18,2226.55,10,475,629,649,650,1830
7723.45,0.0354875,-0.00131012,-0.0114759,-0.0245538,-0.0114759,-0.000682041,-0.0137417,-0.0245538,-0.0137417,-0.00893449,-10057.2,-1580.86,-3634.01,-1580.86,-9780.59,-1887.24,-3634.01,-1887.24,-11258.3,10,467,484,647,663,1831
6703.41,0.0313044,0.0039298,-0.0155663,-0.0165103,-0.0155663,-0.00383617,-0.0142787,-0.0165103,-0.0142787,-0.00178162,-1998.03,-2207.26,-2424.55,-2207.26,-2885.43,-1997.26,-2424.55,-1997.26,-2797.49,10,466,467,484,647,1832
2032.06,0.00963436,0.00606031,-0.00165512,0.00166291,-0.00165512,-0.000310929,-0.00719329,0.00166291,-0.00719329,0.000294374,5297.18,-223.622,243.358,-223.622,4379.8,-1009.26,243.358,-1009.26,4499.94,10,461,479,628,654,1833
3502.74,0.0163818,0.00556942,-0.00382953,0.00149604,-0.00382953,-0.0128584,-0.00849972,0.00149604,-0.00849972,0.00539322,-959.379,-529.9,225.161,-529.9,-3624.19,-1179.6,225.161,-1179.6,-959.713,10,481,656,658,695,1834
2746.69,0.0129969,0.00562107,0.00300559,-0.00123562,0.00300559,-0.00610037,-0.0084251,-0.00123562,-0.0084251,0.00545231,4343.58,399.858,-189.545,399.858,2657.88,-1173.63,-189.545,-1173.63,4333.48,10,421,589,602,606,1835
3250.78,0.0151645,0.0025644,0.00274863,-0.00180435,0.00274863,-0.0118617,-0.00855483,-0.00180435,-0.00855483,0.00580787,-2544.77,367.423,-269.154,367.423,-4640.31,-1196.87,-269.154,-1196.87,-2058.18,10,420,425,426,606,1836
2088.8,0.00985396,0,0.00199466,0,0.00199466,0.00304022,-0.00810961,0,-0.00810961,0,2177.33,282.696,-4.57186,282.696,2586.13,-1149.35,-4.57186,-1149.35,2194.79,10,409,426,590,591,1837
6532.34,0.0296488,0.00111147,-0.00115442,-0.0196467,-0.00115442,-0.00313317,-0.0135876,-0.0196467,-0.0135876,-0.0167749,-15178.3,-98.3629,-2937.9,-98.3629,-15689.6,-1853.61,-2937.9,-1853.61,-17932.9,10,465,466,483,664,1838
8796.82,0.0407394,0.0120831,0.0214239,0.00379347,0.0214239,0.00639152,-0.019798,0.00379347,-0.019798,-0.0241396,-4627.04,3078.77,645.619,3078.77,-5189.65,-2741.78,645.619,-2741.78,-9899.1,10,412,418,599,600,1839
2648.43,0.0125106,0.00397445,-0.00273898,-0.000481643,-0.00273898,-0.00832661,-0.00594945,-0.000481643,-0.00594945,0.00827764,3336.32,-374.994,-59.8827,-374.994,1567.71,-807.285,-59.8827,-807.285,3962.14,10,473,474,479,651,1840
9195.62,0.0422626,0.0120831,0.0230592,0.00574227,0.0230592,-0.00444506,-0.0235225,0.00574227,-0.0235225,-0.017626,-8063.5,3329.95,959.367,3329.95,-10131.7,-3343.02,959.367,-3343.02,-12532.3,10,412,429,599,600,1841
6370.27,0.028604,0.00136646,0.00905962,0.0126342,0.00905962,-0.00454419,-0.0149561,0.0126342,-0.0149561,-0.0220477,-20043.5,1279.64,1971.64,1279.64,-20633.1,-2064.6,1971.64,-2064.6,-23648.5,10,429,599,600,617,1842
9394.14,0.0433423,-0.00220783,-0.0340715,-0.00808743,-0.0340715,-0.0128042,-0.00891776,-0.00808743,-0.00891776,0.0074983,-8338.92,-4920.86,-1176.28,-4920.86,-9864.65,-1296.51,-1176.28,-1296.51,-6941.8,10,491,661,665,666,1843
7469.27,0.0348025,0.00381499,-0.0257486,-0.00733989,-0.0257486,-0.0145772,-0.00682257,-0.00733989,-0.00682257,0.00808357,-2910.75,-3664.68,-1035.64,-3664.68,-5661.76,-979.475,-1035.64,-979.475,-2355.34,10,486,491,661,662,1844
4811.54,0.0225158,0.00817402,-0.0111397,0.000365551,-0.0111397,-0.0165113,-0.00780584,0.000365551,-0.00780584,0.00715249,-301.911,-1534.92,75.8018,-1534.92,-3922.78,-1092.55,75.8018,-1092.55,-483.931,10,469,644,660,661,1845
6542.21,0.0303858,0.00171552,-0.0211022,-0.000372095,-0.0211022,-0.0152404,-0.00987744,-0.000372095,-0.00987744,0.00849443,-4656.39,-3012.44,-24.4833,-3012.44,-7180.99,-1397.68,-24.4833,-1397.68,-3697.48,10,468,645,661,662,1846
9720.26,0.0462441,0.0145935,0.0260985,0.0210397,0.0260985,-0.0163838,-0.0132533,0.0210397,-0.0132533,0.0130199,7806.9,3704.17,2991.43,3704.17,3688.8,-1840.98,2991.43,-1840.98,7642.08,10,430,431,436,615,1847
1298.58,0.00611095,0.00423831,-0.00290297,0.000401354,-0.00290297,-0.00429014,-0.000664562,0.000401354,-0.000664562,0.00151766,1666.31,-404.881,55.2561,-404.881,448.548,-92.7065,55.2561,-92.7065,1275.09,10,520,583,683,687,1848
6520.67,0.0303464,0.00931605,0.00406112,0.00526314,0.00406112,-0.00851863,-0.0236331,0.00526314,-0.0236331,-0.00463369,-2704.44,590.622,773.489,590.622,-5210.21,-3384.58,773.489,-3384.58,-4733.6,10,401,402,418,605,1849
5631.29,0.0264916,0.00877053,0.0147349,0.002659,0.0147349,-0.0120572,-0.0132807,0.002659,-0.0132807,0.00556873,2146.17,2051.88,346.096,2051.88,-897.108,-1886.67,346.096,-1886.67,1671.82,10,415,420,421,597,1850
9098.33,0.0425009,-0.0247039,0.0256971,0.013036,0.0256971,0.0142161,-0.00810498,0.013036,-0.00810498,0.0102563,-6136.74,3471.67,1944.15,3471.67,-142.582,-1104.64,1944.15,-1104.64,-977.537,10,436,614,615,619,1851
8422.01,0.0397532,-0.00916414,0.0311201,0.00814325,0.0311201,0.00412403,-0.00694391,0.00814325,-0.00694391,0.0106826,978.409,4385.21,1160.12,4385.21,2952.58,-966.024,1160.12,-966.024,3830.97,10,437,613,614,618,1852
8126.81,0.0380622,0.0144935,0.0119401,0.007199,0.0119401,0.00936589,-0.021838,0.007199,-0.021838,-0.0230855,855.342,1685.07,1085.22,1685.07,285.646,-2991.12,1085.22,-2991.12,-4616.95,10,401,412,418,600,1853
3601.47,0.0168834,0.00642511,0.00324279,-0.00446516,0.00324279,-0.0131416,-0.00753433,-0.00446516,-0.00753433,0.00626246,232.033,422.065,-650.942,422.065,-2589.32,-1034.46,-650.942,-1034.46,230.126,10,420,425,606,607,1854
3478.29,0.0163127,0.00791468,-0.00761314,-0.00233173,-0.00761314,-0.0121181,-0.00485432,-0.00233173,-0.00485432,0.00397008,656.906,-1041.47,-317.164,-1041.47,-2255.09,-691.081,-317.164,-691.081,67.0388,10,441,442,642,690,1855
3806.09,0.0179271,0.00733907,-0.0105412,-0.00288141,-0.0105412,-0.01049,-0.00500424,-0.00288141,-0.00500424,0.0055883,2520.09,-1464.48,-396.506,-1464.48,-71.7644,-708.554,-396.506,-708.554,2242.06,10,441,442,487,660,1856
2799.48,0.0131489,0.00371774,-0.0100461,-0.00184413,-0.0100461,-0.00496409,0.00214191,-0.00184413,0.00214191,0.00177288,732.679,-1417.13,-260.393,-1417.13,-532.058,312.54,-260.393,312.54,441.154,10,525,633,689,690,1857
2645.66,0.0123887,0.00386497,-0.0089127,-0.00128141,-0.0089127,-0.00681102,0.00153479,-0.00128141,0.00153479,0.0016162,-621.013,-1256.61,-181.025,-1256.61,-2177.12,226.958,-181.025,226.958,-959.304,10,522,525,689,690,1858
2154.81,0.0100816,0.00393207,0.00648547,-8.44312e-05,0.00648547,-0.00702187,0.00130615,-8.44312e-05,0.00130615,0.00116991,-997.73,911.318,-10.5652,911.318,-2586.88,189.955,-10.5652,189.955,-1406.2,10,382,386,387,577,1859
3235.64,0.0152136,0.00529167,0.0122347,-0.00168193,0.0122347,-0.00338357,0.00117876,-0.00168193,0.00117876,-0.000660549,1431.28,1727.49,-243.655,1727.49,167.783,171.044,-243.655,171.044,568.158,10,373,387,388,581,1860
5117.58,0.0238221,0.00519814,0.015797,0.00588695,0.015797,-0.0150495,-0.00140348,0.00588695,-0.00140348,0.00560375,-3098.49,2228,830.519,2228,-6117.09,-200.995,830.519,-200.995,-3100.07,10,369,384,388,579,1861
2439.97,0.0115078,0.00615197,0.00340705,0.00532849,0.00340705,-0.00751915,-0.00206622,0.00532849,-0.00206622,0.00431474,2947.49,456.536,748.627,456.536,988.23,-301.187,748.627,-301.187,2671.93,10,370,372,388,550,1862
1047.9,0.0049194,0.000870522,-0.00242245,0.00328441,-0.00242245,-0.0012569,0.000502433,0.00328441,0.000502433,0.000383441,97.3562,-343.236,465.761,-343.236,-211.714,73.6332,465.761,73.6332,19.9839,10,496,520,583,692,1863
3551.53,0.0167943,-0.000370684,-0.00698491,0.00738065,-0.00698491,0.00942824,0.00763159,0.00738065,0.00763159,-0.00430761,3214.51,-966.658,1032.92,-966.658,4570.93,1091.04,1032.92,1091.04,2604.97,10,512,513,526,672,1864
1092.73,0.00514127,0.00158617,0.00318583,-0.00241478,0.00318583,-0.000469658,0.00165806,-0.00241478,0.00165806,0.000220516,1210.35,448.764,-339.133,448.764,906.872,239.882,-339.133,239.882,1002.48,10,381,541,572,576,1865
1137.59,0.0053461,0.00108923,0.0032636,-0.00316287,0.0032636,-0.000374924,0.000427588,-0.00316287,0.000427588,-7.43461e-05,609.009,462.197,-447.776,462.197,392.172,63.6532,-447.776,63.6532,435.021,10,354,542,576,691,1866
2096.65,0.00985977,-0.0013396,-0.00358662,0.0066229,-0.00358662,0.00205522,0.00364718,0.0066229,0.00364718,0.000428006,571.203,-501.23,942.836,-501.23,1040.04,519.677,942.836,519.677,786.511,10,512,516,517,671,1867
1880.77,0.00879357,0.00257236,0.00598344,0.000608958,0.00598344,-0.0059712,0.0010346,0.000608958,0.0010346,0.00104148,-1491.8,841.596,87.5422,841.596,-2739.84,151.037,87.5422,151.037,-1724.89,10,386,387,577,580,1868
1918.13,0.00906729,0.00775312,0.0039699,-0.00218109,0.0039699,-0.00506661,0.000206615,-0.00218109,0.000206615,0.00155904,4207.99,544.178,-302.782,544.178,2378.09,35.3189,-302.782,35.3189,3318.35,10,381,386,576,577,1869
1378.68,0.00651997,0.00577293,0.00272391,-0.00228669,0.00272391,-0.00293492,0.000515827,-0.00228669,0.000515827,0.00160181,4121,369.989,-318.672,369.989,2873.88,78.5703,-318.672,78.5703,3518.04,10,386,545,576,577,1870
2733.98,0.0129387,0.00608816,-0.0103675,-0.000542727,-0.0103675,-0.000575326,0.00180054,-0.000542727,0.00180054,-0.000454227,4485.06,-1455.65,-73.9746,-1455.65,3518.97,254.882,-73.9746,254.882,3547.5,10,524,634,688,689,1871
2117.17,0.00999956,0.00848017,-0.00459401,0.00225672,-0.00459401,-0.0054257,0.000472301,0.00225672,0.000472301,0.000697959,3921.46,-631.483,309.942,-631.483,1932.67,73.4485,309.942,73.4485,2803.5,10,520,521,683,688,1872
4616.82,0.021548,-0.00184752,-0.00879114,0.00989882,-0.00879114,0.0072472,0.0106081,0.00989882,0.0106081,-0.00822111,-2927.71,-1233.47,1401.81,-1233.47,-1662.26,1534.02,1401.81,1534.02,-3905.83,10,513,526,527,672,1873
1369.59,0.00647121,0.00586449,-0.00296617,0.00196726,-0.00296617,-0.00263095,0.000628297,0.00196726,0.000628297,0.00066608,3730.47,-403.917,271.277,-403.917,2508.94,94.6751,271.277,94.6751,2979.8,10,510,520,521,688,1874
2564.04,0.0120838,0.00700055,-0.00557945,-0.00330347,-0.00557945,-0.00748101,-0.00339989,-0.00330347,-0.00339989,0.00299174,2727.88,-765.419,-459.98,-765.419,642.383,-488.099,-459.98,-488.099,2138.2,10,441,632,642,690,1875
2736.92,0.0128991,0.0085383,0.00764781,0.00220052,0.00764781,-0.00688053,0.00142208,0.00220052,0.00142208,0.000911403,2969.08,1054.27,318.22,1054.27,738.923,201.716,318.22,201.716,1869.58,10,387,578,580,581,1876
3871.83,0.0181753,0.00757635,0.0107104,-0.00101958,0.0107104,-0.00921264,0.00766665,-0.00101958,0.00766665,0.00205852,1019.15,1496.83,-131.343,1496.83,-1415.12,1096.46,-131.343,1096.46,210.484,10,378,382,383,573,1877
1226.66,0.00576344,0.00353028,0.00331153,0.00173811,0.00331153,-0.00306693,-0.000185709,0.00173811,-0.000185709,5.47903e-05,861.373,459.49,247.117,459.49,-94.4003,-28.2631,247.117,-28.2631,359.637,10,386,545,546,577,1878
2773.17,0.0130488,0.00853483,0.00779581,0.000792527,0.00779581,-0.00705937,0.00231962,0.000792527,0.00231962,0.000125268,2237.72,1075.41,122.083,1075.41,-23.2829,334.07,122.083,334.07,1021.56,10,387,577,578,580,1879
5895.35,0.0272028,0.00899709,-0.00306855,-0.0141873,-0.00306855,-0.00200265,0.0135815,-0.0141873,0.0135815,-0.0162203,-6541.33,-495.776,-2032.25,-495.776,-8076.69,1872.45,-2032.25,1872.45,-10365.4,10,360,393,394,569,1880
5892.53,0.0278011,-0.00171286,-0.0150044,0.00939727,-0.0150044,-0.0042462,0.0144105,0.00939727,0.0144105,0.0100932,1925.79,-2081.4,1392.89,-2081.4,1675.53,2077.01,1392.89,2077.01,3508.3,10,514,527,528,673,1881
2830.78,0.013253,0.00625554,-0.0086336,-0.00269794,-0.0086336,-0.00770352,-0.00100301,-0.00269794,-0.00100301,3.86024e-05,-363.732,-1210.97,-383.934,-1210.97,-2396.32,-142.124,-383.934,-142.124,-1267.95,10,525,632,633,690,1882
3158.49,0.0147457,0.00400794,-0.0106002,-0.000426788,-0.0106002,-0.00883157,0.00185163,-0.000426788,0.00185163,0.00179076,-1964.23,-1501.81,-59.2677,-1501.81,-3831.94,273.808,-59.2677,273.808,-2299.71,10,522,685,689,690,1883
4627.48,0.0215269,0.00745653,0.00479932,-0.00282591,0.00479932,-0.0193718,-0.00891796,-0.00282591,-0.00891796,0.00712653,-3107.65,651.249,-423.67,651.249,-7005.93,-1222.93,-423.67,-1222.93,-3128.42,10,419,424,425,607,1884
2606.66,0.0122883,0.00632844,-0.00472354,-0.000163192,-0.00472354,-0.00665785,-0.00673451,-0.000163192,-0.00673451,0.0030286,2755.04,-658.421,-10.6245,-658.421,883.191,-936.676,-10.6245,-936.676,2302.68,10,478,479,651,654,1885
5443.18,0.0254195,0.00584379,-0.00496164,0.00542193,-0.00496164,-0.0129918,-0.0178249,0.00542193,-0.0178249,0.00494256,-1603.05,-714.417,780.786,-714.417,-4314.34,-2535.43,780.786,-2535.43,-1746.46,10,657,658,659,695,1886
5383.22,0.0252489,0.00491309,-0.00333899,0.00201314,-0.00333899,-0.0138435,-0.0176549,0.00201314,-0.0176549,0.00931299,215.822,-474.321,291.991,-474.321,-2469.77,-2497.61,291.991,-2497.61,854.18,10,476,657,659,695,1887
3585.04,0.01672,0.00243368,-0.000481343,8.24752e-05,-0.000481343,-0.0143952,-0.00834003,8.24752e-05,-0.00834003,0.00841416,-2670.97,-57.6014,17.0595,-57.6014,-5107.11,-1150.72,17.0595,-1150.72,-1787.11,10,476,480,481,659,1888
3853.34,0.0181212,0.00285227,-0.00413692,0.00345214,-0.00413692,-0.00929623,-0.0117811,0.00345214,-0.0117811,0.00794428,1141.31,-568.626,498.749,-568.626,-621.845,-1643.1,498.749,-1643.1,1903.24,10,477,481,482,656,1889
9625.61,0.0450165,0.022706,-0.0169985,0.0181015,-0.0169985,-0.0327117,-0.0072834,0.0181015,-0.0072834,0.0107222,1621.59,-2012.14,2576.79,-2012.14,-6761.18,-1051.8,2576.79,-1051.8,-433.275,10,434,439,620,623,1890
15110.3,0.0687525,0.0428876,-0.0274532,0.0162616,-0.0274532,-0.0563786,0.0061546,0.0162616,0.0061546,0.00204244,-7991.42,-3606.27,2260.13,-3606.27,-23071.6,714.146,2260.13,714.146,-14156.2,10,398,438,621,624,1891
13859.1,0.0608827,0.0143579,0.0203982,0.0230129,0.0203982,-0.0603868,-0.00424353,0.0230129,-0.00424353,0.0124672,-28156.4,3170.94,3534.4,3170.94,-39368.5,-738.513,3534.4,-738.513,-28422.7,10,430,435,436,615,1892
8593.63,0.0399912,-0.0023687,0.028268,0.0134114,0.028268,-0.0104289,-0.0107175,0.0134114,-0.0107175,0.00997986,-4470.51,4028.75,1976.72,4028.75,-5532.42,-1575.41,1976.72,-1575.41,-2733.41,10,431,436,614,615,1893
7025.42,0.0318817,-0.0102252,-0.00584748,-0.0171935,-0.00584748,-0.0242018,-0.00473135,-0.0171935,-0.00473135,0.0157091,-17049.6,-913.472,-2577.94,-913.472,-18843.1,-681.591,-2577.94,-681.591,-13139.1,10,489,490,667,669,1894
8696.61,0.0409733,-0.00146154,-0.0328421,-0.00889063,-0.0328421,-0.00433427,-0.00630649,-0.00889063,-0.00630649,0.0104773,790.726,-4632.04,-1347.85,-4632.04,1346.74,-823.991,-1347.85,-823.991,2951.45,10,494,639,666,669,1895
6219.85,0.0292397,0.00256982,-0.0202414,-0.00539253,-0.0202414,-0.00388835,-0.0136559,-0.00539253,-0.0136559,0.00340996,907.282,-2862.06,-772.295,-2862.06,-6.14743,-1948.52,-772.295,-1948.52,1004.59,10,467,468,646,696,1896
3444.28,0.0162676,0.00969777,-0.00650356,-0.000543625,-0.00650356,-0.00978122,-0.00743952,-0.000543625,-0.00743952,0.00408662,4092.15,-877.529,-54.0454,-877.529,1277.24,-1038.48,-54.0454,-1038.48,3289.68,10,468,474,475,650,1897
7402.56,0.0342765,0.0217413,0.00738151,0.00758069,0.00738151,0.00204697,-0.00891933,0.00758069,-0.00891933,-0.0302728,-3246.36,1061.46,1165.61,1061.46,-5934.34,-1095.26,1165.61,-1095.26,-10781,10,400,452,453,600,1898
18311.5,0.0841892,0.04215,-0.032812,-0.000600232,-0.032812,-0.0740418,-0.0118147,-0.000600232,-0.0118147,0.030664,-3608.39,-4197.57,-11.9032,-4197.57,-21041.7,-1700.64,-11.9032,-1700.64,-5554.81,10,365,397,438,556,1899
12236,0.0550608,0.00662208,-0.0118981,-0.028865,-0.0118981,-0.045363,0.0125205,-0.028865,0.0125205,0.018045,-18277,-1353.61,-4345.79,-1353.61,-26226.5,1783.22,-4345.79,1783.22,-16717.3,10,366,396,555,568,1900
5286.99,0.0248404,0.014276,-0.00452147,0.000982915,-0.00452147,-0.0011594,-0.0164437,0.000982915,-0.0164437,-0.011724,2325.64,-652.13,115.104,-652.13,210.94,-2304.81,115.104,-2304.81,-1442.12,10,401,453,465,471,1901
18458,0.0856821,0.0427315,-0.0323089,-0.00371791,-0.0323089,-0.0737922,-0.0130553,-0.00371791,-0.0130553,0.0359526,742.858,-4083.01,-457.365,-4083.01,-16572.7,-1856.17,-457.365,-1856.17,-508.712,10,364,365,397,556,1902
2480.77,0.011719,0.00168109,1.43333e-05,0.000640365,1.43333e-05,-0.00574934,-0.00743687,0.000640365,-0.00743687,0.00798806,3027.75,1.70934,90.2209,1.70934,1952.38,-1024.36,90.2209,-1024.36,3944.2,10,427,456,594,612,1903
2338.13,0.0109397,0.00166215,0.000915945,0.000956147,0.000915945,-0.00375892,-0.0089507,0.000956147,-0.0089507,0.000226792,-1320.89,135.248,139.133,135.248,-2115.64,-1269.19,139.133,-1269.19,-1499.95,10,404,458,625,659,1904
3264.64,0.0152448,0.00231838,0.000781702,0.00121122,0.000781702,-0.0145586,-0.00458633,0.00121122,-0.00458633,0.00937007,-2119.32,119.048,170.923,119.048,-4550.33,-592.106,170.923,-592.106,-1089.03,10,404,455,456,659,1905
4932.04,0.0232564,0.0105133,0.0148062,0.00293723,0.0148062,-0.0110694,-0.00743343,0.00293723,-0.00743343,0.00399496,3462.08,2067.28,403.676,2067.28,328.423,-1044.56,403.676,-1044.56,2509.25,10,370,416,433,613,1906
15749.2,0.069723,0.0150746,0.0249432,0.00959713,0.0249432,-0.0706317,-0.00621869,0.00959713,-0.00621869,0.0285234,-24267.4,3110.36,1365.98,3110.36,-37905.1,-810.27,1365.98,-810.27,-22603.6,10,446,447,637,682,1907
7595.49,0.0344253,0.00685277,0.00187193,-0.0249137,0.00187193,-0.0198355,-0.00930273,-0.0249137,-0.00930273,-0.00623591,-15068.5,221.469,-3616.11,221.469,-19101.2,-1409.15,-3616.11,-1409.15,-16683.6,10,395,567,568,571,1908
9928.11,0.0461104,-0.00201704,-0.0042577,0.0394973,-0.0042577,-0.00450706,0.000893359,0.0394973,0.000893359,0.00324444,-5531.74,-364.304,5679.35,-364.304,-5636.95,-87.6224,5679.35,-87.6224,-4412.69,10,532,677,678,681,1909
12063.6,0.0548552,0.0259258,-5.20223e-05,-0.00447813,-5.20223e-05,-0.0578512,0.0103233,-0.00447813,0.0103233,0.0176028,-10877.2,-50.3434,-651.091,-50.3434,-23230.9,1223.17,-651.091,1223.17,-12023.9,10,397,449,450,492,1910
18595.8,0.0865482,0.0419948,0.0367666,0.00191582,0.0367666,-0.0708251,-0.0157999,0.00191582,-0.0157999,0.035508,1866.68,4672.08,163.625,4672.08,-15030.5,-2193.7,163.625,-2193.7,606.112,10,364,397,447,637,1911
14907.8,0.0699728,0.0423109,-0.03083,0.000612179,-0.03083,-0.0543701,0.0129272,0.000612179,0.0129272,0.019506,5800.58,-3953.9,-53.2445,-3953.9,-8539.6,1522.63,-53.2445,1522.63,2391.83,10,397,438,556,624,1912
15799.9,0.0713867,0.0213018,-0.00173728,-0.00317842,-0.00173728,-0.0703346,-0.0235958,-0.00317842,-0.0235958,0.0342931,-14587,-228.927,-453.696,-228.927,-28201.1,-3272.4,-453.696,-3272.4,-12577.7,10,364,397,447,448,1913
11399.8,0.0532443,0.0345954,-0.00959403,-0.00809774,-0.00959403,-0.0483524,-0.00940787,-0.00809774,-0.00940787,0.0150307,2460.48,-1025.23,-1088.01,-1025.23,-9606.42,-1063,-1088.01,-1063,-309.15,10,363,396,556,571,1914
15958,0.072706,0.0265473,-0.00260675,0.00149032,-0.00260675,-0.0703346,-0.0235958,0.00149032,-0.0235958,0.0342931,-10086.1,-338.96,226.172,-338.96,-24354.4,-3245.02,226.172,-3245.02,-8860.89,10,364,397,448,556,1915
9612.3,0.0443282,-0.000169123,-0.0101643,-0.0250334,-0.0101643,-0.0309779,0.00100858,-0.0250334,0.00100858,0.0233665,-8114.53,-1328.74,-3590.02,-1328.74,-12843.6,167.196,-3590.02,167.196,-4859.6,10,366,392,396,568,1916
8211.22,0.0375607,0.00503886,0.0122217,0.0115759,0.0122217,-0.0331818,-0.0114799,0.0115759,-0.0114799,0.0147942,-10962,1531.18,1528.09,1531.18,-17008.8,-1467.64,1528.09,-1467.64,-9569.38,10,447,533,536,682,1917
13332.1,0.0633888,0.0370595,0.0332801,-0.00353621,0.0332801,-0.0440573,0.0072091,-0.00353621,0.0072091,0.0207859,10942.4,4277.73,-368.42,4277.73,-1086.14,785.787,-368.42,785.787,8402.84,10,397,447,492,670,1918
13288,0.0603509,0.024976,-0.0186265,0.00569013,-0.0186265,-0.0588229,0.0120919,0.00569013,0.0120919,0.0198421,-11418.2,-2271.47,717.428,-2271.47,-24182.4,1478.38,717.428,1478.38,-12250.7,10,438,555,623,624,1919
14369.1,0.0653074,0.0306586,-0.0167512,-0.000459967,-0.0167512,-0.0611597,-0.0210636,-0.000459967,-0.0210636,0.0179151,-10516.4,-2507.81,89.1976,-2507.81,-24300.1,-2303.28,89.1976,-2303.28,-12007.2,10,363,505,506,536,1920
2172.86,0.0101686,0,-0.00451181,0,-0.00451181,-0.00176211,-0.00749397,0,-0.00749397,0,-1449.26,-641.497,9.63317,-641.497,-1727.88,-1065.51,9.63317,-1065.51,-1439.06,10,463,464,475,630,1921
3371.93,0.0157735,0.00492581,-0.00587228,-0.00135571,-0.00587228,-0.0120659,-0.00718266,-0.00135571,-0.00718266,0.00534782,-935.039,-808.14,-180.211,-808.14,-3398.08,-1022.4,-180.211,-1022.4,-890.893,10,470,643,644,660,1922
3168.83,0.0149261,0.00397644,-0.00689514,-0.000449435,-0.00689514,-0.00883573,-0.00689931,-0.000449435,-0.00689931,0.00716843,2057.15,-953.649,-45.7591,-953.649,184.403,-961.173,-45.7591,-961.173,2500.96,10,468,469,475,697,1923
4476.96,0.020979,0.00538184,-0.0124944,-0.000905474,-0.0124944,-0.0132212,-0.00663988,-0.000905474,-0.00663988,0.00737895,-78.6335,-1749.76,-110.132,-1749.76,-2813.43,-928.932,-110.132,-928.932,173.759,10,469,487,660,661,1924
3133.83,0.0147985,0.00762838,0.00763188,0.00176731,0.00763188,-0.00858952,-0.00528161,0.00176731,-0.00528161,0.00478107,3728.46,1038.55,233.123,1038.55,1360.3,-741.856,233.123,-741.856,3296.03,10,370,416,550,613,1925
4377.79,0.0203922,0.00830433,0.00660269,0.00221705,0.00660269,-0.015606,-0.0102306,0.00221705,-0.0102306,0.00322922,-2362.1,877.48,280.466,877.48,-5871.04,-1456.74,280.466,-1456.74,-3107.43,10,415,421,422,601,1926
5063.12,0.0239036,0.00824301,0.0166354,0.00403921,0.0166354,-0.0110058,-0.00441999,0.00403921,-0.00441999,0.00698315,3722.05,2309.45,552.54,2309.45,855.061,-611.367,552.54,-611.367,3485.41,10,596,613,614,694,1927
2856.94,0.0133745,0,0.00609102,0.00175396,0.00609102,-0.00755638,-0.00686409,0.00175396,-0.00686409,0.00610981,-1297.45,858.828,245.979,858.828,-2394.02,-982.052,245.979,-982.052,-441.214,10,371,417,549,550,1928
2891.55,0.0135931,0.00365938,0.0048814,-0.000517348,0.0048814,-0.00986928,-0.0057292,-0.000517348,-0.0057292,0.00727353,1105.92,674.559,-84.318,674.559,-849.266,-785.396,-84.318,-785.396,1630.68,10,420,421,426,606,1929
2486.83,0.0116526,0,-0.00634143,-0.00147383,-0.00634143,-0.00561727,-0.00574444,-0.00147383,-0.00574444,0.00465398,-879.566,-896.058,-204.591,-896.058,-1703.87,-818.534,-204.591,-818.534,-228.504,10,440,441,631,643,1930
1916.2,0.00900963,0.00526044,-0.00333972,0.000453862,-0.00333972,-0.00428636,-0.00516411,0.000453862,-0.00516411,3.91268e-05,1421.03,-460.439,73.8008,-460.439,41.7733,-728.037,73.8008,-728.037,680.324,10,440,464,470,643,1931
4396.7,0.0207946,-0.00423024,0.00862556,-0.00768075,0.00862556,0.00673792,0.0126594,-0.00768075,0.0126594,0.00257526,2731.5,1179.47,-1109.06,1179.47,4287.19,1792.43,-1109.06,1792.43,3627.38,10,378,379,558,562,1932
3933.45,0.0185845,0.00478659,-0.00420488,0.00169061,-0.00420488,-0.00947232,-0.0120264,0.00169061,-0.0120264,0.00901958,3528.48,-579.953,248.456,-579.953,1472.23,-1667.23,248.456,-1667.23,4163.99,10,477,481,656,695,1933
5994.98,0.0279142,0.000676611,-0.0200714,0.00720318,-0.0200714,-0.0111763,0.0068212,0.00720318,0.0068212,0.00675079,-3633.83,-2852.11,1031.47,-2852.11,-5437.15,1003.1,1031.47,1003.1,-2836.42,10,518,673,685,686,1934
2772.45,0.0131814,0.00466906,-0.00683517,0.00687161,-0.00683517,0.00282578,0.00562808,0.00687161,0.00562808,0.000349836,6359.71,-947.975,967.752,-947.975,6114.85,789.899,967.752,789.899,5723.36,10,500,526,530,586,1935
8737.37,0.0423956,0.0232081,0.0202958,-0.00559409,0.0202958,-0.0265281,0.00565915,-0.00559409,0.00565915,0.0259648,18268.6,2445.8,-685.628,2445.8,10892.3,665.642,-685.628,665.642,18433.8,10,493,638,669,670,1936
8523.32,0.0397315,-0.00332843,0.00340467,-0.0266638,0.00340467,0.0215642,0.00474605,-0.0266638,0.00474605,-0.0200689,-3866.39,216.894,-3851.98,216.894,-193.566,308.385,-3851.98,308.385,-6224.01,10,393,394,566,569,1937
4698.9,0.0216953,0.00510394,0.00145889,-0.0146608,0.00145889,0.00139382,0.00346663,-0.0146608,0.00346663,-0.0157634,-6855.39,167.47,-2128.94,167.47,-7356.31,401.277,-2128.94,401.277,-9885.62,10,358,393,565,569,1938
2505.27,0.0117089,0,0,-0.00935232,0,0,0.00364375,-0.00935232,0.00364375,-0.00249821,-2027.05,-9.72177,-1330.43,-9.72177,-2048.22,518.347,-1330.43,518.347,-2437.1,10,357,389,538,539,1939
1929.64,0.00907651,0,0,-0.00748105,0,0,0.00230025,-0.00748105,0.00230025,0.00126087,868.119,-4.87791,-1061.5,-4.87791,853.755,326.388,-1061.5,326.388,1013.59,10,356,377,539,540,1940
12372.4,0.0557011,-0.0343775,0.0296315,-0.0240689,0.0296315,0.00509132,0.0170296,-0.0240689,0.0170296,0.00924223,-24675.5,3932.05,-3852.34,3932.05,-17849.9,2356.47,-3852.34,2356.47,-18011.1,10,380,391,392,564,1941
1991.51,0.00929658,-0.00200748,0.00597034,-0.00313387,0.00597034,-0.00271869,0.00379743,-0.00313387,0.00379743,0.00143432,-2864.88,847.264,-450.65,847.264,-2983.71,551.437,-450.65,551.437,-2394.71,10,381,382,572,577,1942
5741.76,0.0273342,-0.00362838,-0.00705481,0.0124004,-0.00705481,0.0232184,0.00668472,0.0124004,0.00668472,-0.0101013,5757.98,-895.76,1744.18,-895.76,9544.77,894.051,1744.18,894.051,4773.65,10,526,527,530,676,1943
5556.21,0.0258392,0.00391631,-0.0031717,0.0161887,-0.0031717,0.00994395,0.00190696,0.0161887,0.00190696,-0.0185195,-3795.11,-368.167,2335.74,-368.167,-2889.07,106.297,2335.74,106.297,-7009.26,10,530,534,587,679,1944
4741.8,0.0224875,-0.00183582,-0.00855548,0.00629166,-0.00855548,0.00649555,0.0157836,0.00629166,0.0157836,0.0021588,4284.39,-1172.18,900.963,-1172.18,5466.28,2226.65,900.963,2226.65,4798.25,10,513,527,672,673,1945
5026.49,0.0234044,0.00356775,-0.00934846,0.00706013,-0.00934846,0.000538354,0.0153662,0.00706013,0.0153662,-0.00821892,-3327.01,-1308.04,1081.04,-1308.04,-3549.54,2160.26,1081.04,2160.26,-5047.45,10,527,530,531,676,1946
5961.76,0.027874,-0.00302254,0.0102839,-0.0190308,0.0102839,0.00541202,0.00943877,-0.0190308,0.00943877,-0.00367855,-2434.07,1337.65,-2797.8,1337.65,-982.664,1212.01,-2797.8,1212.01,-2547.8,10,390,391,563,566,1947
8859.26,0.0405674,-0.00024956,0.00390878,-0.0346151,0.00390878,-0.0052071,-0.0029467,-0.0346151,-0.0029467,-0.00696094,-11659.8,364.549,-5049.38,364.549,-12173.4,-663.682,-5049.38,-663.682,-12198.8,10,391,395,566,567,1948
4962.92,0.0232534,0.00314116,0.00777002,-0.0144739,0.00777002,-0.00146893,0.0112949,-0.0144739,0.0112949,-0.00205481,-589.251,1062.31,-2160,1062.31,-966.928,1508.03,-2160,1508.03,-1342.76,10,391,563,566,567,1949
5445.84,0.0260238,0.00313306,0.00811855,-0.017879,0.00811855,-0.00123965,0.00957027,-0.017879,0.00957027,0.00977607,8338.49,1072.85,-2589.5,1072.85,7973.23,1268.86,-2589.5,1268.86,9231.7,10,391,563,564,567,1950
5279.57,0.0249421,0.00385644,0.0124175,-0.00807389,0.0124175,-0.00419091,0.0148993,-0.00807389,0.0148993,0.00503476,3315.85,1729.14,-1184.9,1729.14,2285.98,2122.39,-1184.9,2122.39,3419.85,10,379,559,562,563,1951
4995.68,0.0238966,-0.000820336,-0.00823765,0.0181986,-0.00823765,0.00710476,0.00333442,0.0181986,0.00333442,0.00583421,8270.29,-1024.13,2590.36,-1024.13,9528.7,369.107,2590.36,369.107,9189.43,10,527,528,531,677,1952
5257.37,0.0247129,0.00409064,-0.00291371,0.0171933,-0.00291371,0.0103257,0.00339274,0.0171933,0.00339274,-0.0127457,1081.96,-322.557,2456.66,-322.557,2017.79,335.35,2456.66,335.35,-1318.57,10,530,531,534,679,1953
5619.4,0.0263457,0.00492284,-0.00709536,0.0175085,-0.00709536,-0.00300501,0.0120674,0.0175085,0.0120674,-0.00169457,-66.0665,-976.702,2593.68,-976.702,-914.534,1604.13,2593.68,1604.13,-1014.43,10,528,531,532,677,1954
8449.38,0.0387052,-0.0170599,0.0194713,-0.0202683,0.0194713,0.00694117,0.0136732,-0.0202683,0.0136732,-0.00223282,-13859.3,2666.21,-3063.75,2666.21,-9984.36,1876.74,-3063.75,1876.74,-11641.8,10,379,390,391,563,1955
4281.12,0.0199306,0.00318399,0.0068268,-0.00872525,0.0068268,-0.00198439,0.0124717,-0.00872525,0.0124717,-0.00563721,-3421.86,958.382,-1311.79,958.382,-3995.52,1742.36,-1311.79,1742.36,-4736.22,10,390,562,565,566,1956
7160.45,0.033561,-0.000577455,0.0197396,-0.0105322,0.0197396,-0.0105888,0.0147425,-0.0105322,0.0147425,0.0118907,-1035.35,2788.47,-1624.78,2788.47,-2114.35,2145.65,-1624.78,2145.65,736.233,10,380,560,563,564,1957
2580.97,0.0121066,0.00681036,-0.0067085,0.00316938,-0.0067085,-0.00746693,0.00194011,0.00316938,0.00194011,0.000352196,582.166,-935.897,442.177,-935.897,-1481.02,287.04,442.177,287.04,-363.464,10,521,683,684,688,1958
5529.93,0.026053,-0.00439201,-0.00815742,0.0181879,-0.00815742,-0.00568054,-0.000849419,0.0181879,-0.000849419,0.013178,725.852,-1095.85,2570.78,-1095.85,877.335,-245.211,2570.78,-245.211,3438.48,10,445,529,533,678,1959
2482.58,0.0116377,0.00682776,-0.00636949,-0.00175444,-0.00636949,-0.00754275,0.002501,-0.00175444,0.002501,9.41814e-06,286.75,-890.805,-253.393,-890.805,-1779.92,357.699,-253.393,357.699,-693.829,10,521,684,688,689,1960
6419.07,0.0299942,-0.01904,-0.00341651,0.0129979,-0.00341651,-0.00576403,0.00499773,0.0129979,0.00499773,0.0233086,-4955.25,-307.426,1950.47,-307.426,-2946.18,643.16,1950.47,643.16,1073.19,10,445,533,638,678,1961
15361.4,0.0682801,0.0222975,-0.00722332,0.000593294,-0.00722332,-0.0551439,-0.0418139,0.000593294,-0.0418139,0.00785043,-21717.5,-997.095,172.928,-997.095,-33866.3,-5854.65,172.928,-5854.65,-23390.3,10,363,447,448,506,1962
13566.8,0.0631573,0.041596,0.00568679,0.00510172,0.00568679,-0.0604468,-0.00645445,0.00510172,-0.00645445,0.0199901,1859.99,436.795,702.153,436.795,-12874.5,-434.73,702.153,-434.73,-1193.33,10,362,363,536,682,1963
15079.1,0.0676425,0.0297884,-0.019296,-0.00330206,-0.019296,-0.0583341,-0.0304996,-0.00330206,-0.0304996,0.00875607,-16547.1,-2978.13,-355.789,-2978.13,-30020.7,-3971.98,-355.789,-3971.98,-19171.7,10,363,447,506,536,1964
13596.4,0.0615936,0.0279746,0.00298543,-0.00309544,0.00298543,-0.0611597,-0.0210636,-0.00309544,-0.0210636,0.0179151,-12336.6,635.717,-445.279,635.717,-25775.8,-2312.52,-445.279,-2312.52,-13439,10,363,505,506,571,1965
13189.5,0.0610743,0.0357078,-0.00712019,-0.0126399,-0.00712019,-0.0585876,-0.00511211,-0.0126399,-0.00511211,0.0204057,-1331.19,-714.225,-1769.02,-714.225,-15048.4,-295.45,-1769.02,-295.45,-3535.54,10,362,363,396,571,1966
7909.18,0.0362839,0.00429745,-0.0150232,-0.0107809,-0.0150232,-0.0310452,-0.00808594,-0.0107809,-0.00808594,0.0149708,-9702.54,-1936.02,-1428.35,-1936.02,-15371.9,-1008.31,-1428.35,-1008.31,-8290.63,10,396,556,568,571,1967
5856.83,0.0269627,0.00641227,-0.00592623,0.0198528,-0.00592623,-0.0056244,0.00577202,0.0198528,0.00577202,-0.0114107,-8052.43,-831.947,2921.18,-831.947,-9657.65,736.961,2921.18,736.961,-10605.5,10,530,531,676,679,1968
1141.57,0.00536099,0.00189442,0.00377166,0.000503508,0.00377166,-0.00288272,-0.000645206,0.000503508,-0.000645206,0.00119824,404.694,527.637,70.7381,527.637,-297.974,-90.5206,70.7381,-90.5206,294.381,10,386,546,577,580,1969
5848.99,0.0269783,-0.0121373,0.0160393,-0.00779205,0.0160393,-0.000188165,0.0128483,-0.00779205,0.0128483,0.00285724,-9807.3,2285.22,-1166.55,2285.22,-8056.28,1880.49,-1166.55,1880.49,-7685.51,10,378,379,558,574,1970
8112.95,0.0377133,-0.0045066,0.0103344,-0.0189031,0.0103344,-0.00426266,0.0239415,-0.0189031,0.0239415,0.00500362,-5446.21,1329.53,-3025.32,1329.53,-4705.26,3255.95,-3025.32,3255.95,-4157.04,10,392,564,567,568,1971
9119.68,0.040909,0.00266582,0.00762154,0.0178771,0.00762154,-0.0416144,-0.00208077,0.0178771,-0.00208077,0.014421,-20187.4,896.013,2600.33,896.013,-27015.8,-41.2918,2600.33,-41.2918,-18552,10,533,536,681,682,1972
7519.93,0.0354953,0.00926035,0.00278274,-0.00216404,0.00278274,0.012688,-0.0259293,-0.00216404,-0.0259293,-0.0168061,3649.94,359.732,-325.922,359.732,3593.29,-3925.95,-325.922,-3925.95,523.11,10,361,503,504,569,1973
2675.08,0.0126164,0.000761762,0.00511893,-0.00889715,0.00511893,0.00288951,0.00328693,-0.00889715,0.00328693,-0.000673632,2163.18,706.164,-1267.19,706.164,2484.5,451.722,-1267.19,451.722,1932.55,10,389,538,561,565,1974
4828.73,0.0220898,0,0,0.00056547,0,0,0.0171264,0.00056547,0.0171264,-0.0147312,-11761,2.82264,81.1339,2.82264,-11675.6,2457.31,81.1339,2457.31,-13993.5,10,358,359,360,537,1975
4324.02,0.0203452,0.00720818,-0.00348469,0.00840948,-0.00348469,0.000973939,0.0135027,0.00840948,0.0135027,-0.00623511,1984.01,-477.981,1203.46,-477.981,1162.61,1894.15,1203.46,1894.15,24.9654,10,360,501,534,587,1976
5752.83,0.0265899,0.0102105,-0.00313289,0.00174962,-0.00313289,0.00963776,0.00593177,0.00174962,0.00593177,-0.0281071,-5651.7,-442.961,285.396,-442.961,-5665.97,633.889,285.396,633.889,-11231.7,10,360,361,503,534,1977
5893.24,0.0275605,0.00242651,-0.0139567,-0.00435618,-0.0139567,-0.0131814,-0.0148459,-0.00435618,-0.0148459,0.00958433,-1436.9,-1961.62,-612.761,-1961.62,-3725.44,-2127.26,-612.761,-2127.26,-446.657,10,646,650,651,696,1978
8153.06,0.038905,-0.00282533,0.0256141,0.0190613,0.0256141,0.00301428,-0.00779469,0.0190613,-0.00779469,0.0119058,6565.96,3508.91,2736.84,3508.91,8018.5,-984.61,2736.84,-984.61,8896.43,10,435,436,615,619,1979
3738.74,0.0176294,0.00487763,-0.00380017,0.000587663,-0.00380017,-0.0106684,-0.0105691,0.000587663,-0.0105691,0.00887539,2641.94,-525.163,91.2147,-525.163,401.315,-1459.78,91.2147,-1459.78,3244.32,10,476,477,481,695,1980
4600.34,0.0216196,0.00634235,0.000816847,0.00136708,0.000816847,-0.00704428,-0.0173595,0.00136708,-0.0173595,0.00201506,1321.71,122.831,204.169,122.831,-576.816,-2461.41,204.169,-2461.41,709.854,10,402,454,455,609,1981
4340.55,0.0205995,0.00894776,0.00314299,0.00372447,0.00314299,-0.00593893,-0.0153885,0.00372447,-0.0153885,0.00412965,6119.94,445.155,529.05,445.155,4036.93,-2161.89,529.05,-2161.89,5439.92,10,402,454,605,609,1982
3366.74,0.0157147,0.00425234,-0.00290618,0.002407,-0.00290618,-0.0122355,-0.00876452,0.002407,-0.00876452,0.00487317,-2037.79,-395.34,355.495,-395.34,-4429.28,-1222.26,355.495,-1222.26,-1923.67,10,481,482,656,658,1983
3596.5,0.0167316,0.00278131,-0.00150806,0.00122166,-0.00150806,-0.0145208,-0.00887148,0.00122166,-0.00887148,0.00669793,-3749.55,-201.689,184.501,-201.689,-6260.11,-1237.98,184.501,-1237.98,-3164.79,10,481,658,659,695,1984
12379.4,0.0553104,0.00116148,-0.0251538,0.027243,-0.0251538,-0.0375582,-0.015801,0.027243,-0.015801,0.0115535,-21823.1,-3497.78,4137.11,-3497.78,-28552.3,-2222.86,4137.11,-2222.86,-21136.3,10,429,434,435,616,1985
4126.57,0.0193432,0.00401826,-0.000245068,0.00352683,-0.000245068,-0.0178997,-0.00295001,0.00352683,-0.00295001,0.0135032,-170.174,2.70123,500.521,2.70123,-3299.96,-322.998,500.521,-322.998,1200.48,10,482,655,656,658,1986
2535.96,0.0119376,0.00165665,0.00134726,0.00118413,0.00134726,-0.00930816,-0.00384379,0.00118413,-0.00384379,0.00945922,1424.86,199.968,164.716,199.968,-143.993,-494.317,164.716,-494.317,2551.12,10,404,456,458,659,1987
2337.83,0.0109085,0,-0.00105303,0,-0.00105303,-0.00350001,-0.00916815,0,-0.00916815,0,-2787.16,-149.898,2.75871,-149.898,-3311.87,-1305.08,2.75871,-1305.08,-2763.46,10,459,625,626,659,1988
2445.45,0.0114288,0.00216004,-0.000827947,0.00050406,-0.000827947,-0.00480524,-0.00917643,0.00050406,-0.00917643,0.000114843,-1760.29,-114.502,76.6445,-114.502,-2780.15,-1301.83,76.6445,-1301.83,-2027.63,10,459,481,626,659,1989
3944.37,0.0184511,0.0024918,-0.000360504,-0.00101384,-0.000360504,-0.0141604,-0.0100596,-0.00101384,-0.0100596,0.0100075,-1310.94,-40.4711,-139.761,-40.4711,-3716.39,-1396.27,-139.761,-1396.27,-210.16,10,476,481,659,695,1990
4653.96,0.0218434,0.00644208,-0.00494102,0.00158415,-0.00494102,-0.0148351,-0.012656,0.00158415,-0.012656,0.00894591,751.077,-695.533,231.855,-695.533,-2310.81,-1759.63,231.855,-1759.63,1150.57,10,477,656,657,695,1991
9297.24,0.0436452,0.0178421,0.015583,-0.0193674,0.015583,-0.0305525,-0.00812691,-0.0193674,-0.00812691,0.0154986,2581.28,1925.49,-2751.81,1925.49,-4660.82,-1197.1,-2751.81,-1197.1,1954.16,10,489,493,669,670,1992
11505,0.0529288,0.0229083,0.0166311,-0.00683741,0.0166311,-0.0507302,0.00609973,-0.00683741,0.00609973,0.0200691,-5878.15,1905.67,-907.791,1905.67,-16989.4,668.822,-907.791,668.822,-6427.75,10,446,492,493,670,1993
8250.4,0.0385833,-0.0155283,-0.0212391,0.00464764,-0.0212391,-0.0120668,0.00847107,0.00464764,0.00847107,0.02752,-4418.46,-2976.32,752.908,-2976.32,-3243.86,1222.02,752.908,1222.02,2023.61,10,445,638,639,678,1994
7688.67,0.0354619,-0.00439385,-0.00838513,0.0197386,-0.00838513,-0.0113462,0.0199264,0.0197386,0.0199264,0.0070386,-8942.29,-1143.89,3092.85,-1143.89,-9358.56,2771.03,3092.85,2771.03,-7326.33,10,529,532,533,678,1995
18615.8,0.0867653,0.0419948,0.0355575,0.00877309,0.0355575,-0.0712164,-0.0148052,0.00877309,-0.0148052,0.036813,2501.17,4502.81,1142.3,4502.81,-14404.5,-2097.36,1142.3,-2097.36,1414.46,10,363,364,447,637,1996
15476,0.0691472,0.0255289,-0.00624899,-0.00062348,-0.00624899,-0.0551439,-0.0418139,-0.00062348,-0.0418139,0.00785043,-18924.8,-846.193,-12.2065,-846.193,-31492.9,-5824.41,-12.2065,-5824.41,-21071.1,10,363,448,506,556,1997
6994.71,0.0330202,-0.000756028,-0.0265456,-0.00391075,-0.0265456,-0.00419774,-0.00660442,-0.00391075,-0.00660442,0.00991767,1872.08,-3754.11,-629.84,-3754.11,2264.28,-880.178,-629.84,-880.178,3804.97,10,445,494,639,669,1998
15860.9,0.0709883,0.0150746,0.0266413,-3.30357e-05,0.0266413,-0.0671052,-0.0164963,-3.30357e-05,-0.0164963,0.0316711,-19374.9,3322.99,-148.144,3322.99,-32386.3,-2379.39,-148.144,-2379.39,-17254,10,446,447,637,670,1999
7283.21,0.0321283,-0.0194877,0.001506,0.00720197,0.001506,-0.0334243,-0.00507512,0.00720197,-0.00507512,0.0175571,-31122.3,58.541,1031.33,58.541,-33261.1,-904.543,1031.33,-904.543,-25561.6,10,445,446,493,638,2000
10761,0.0503861,-0.0134838,-0.0394803,-0.00407896,-0.0394803,0.00512241,-0.0129994,-0.00407896,-0.0129994,0.0106384,-3555.6,-5557.51,-647.854,-5557.51,-410.128,-1837.62,-647.854,-1837.62,98.4155,10,444,639,665,666,2001
15731.3,0.0710153,0.0213018,-0.00227901,-0.000106109,-0.00227901,-0.0706094,-0.0227889,-0.000106109,-0.0227889,0.0339787,-14969.5,-305.489,7.75889,-305.489,-28640.7,-3140.65,7.75889,-3140.65,-13005.9,10,363,364,447,448,2002
11329.6,0.052923,0.0250597,-0.0247663,0.00574362,-0.0247663,-0.0433313,-0.00317218,0.00574362,-0.00317218,0.0195807,1368.81,-3076.28,822.836,-3076.28,-8964.75,-548.449,822.836,-548.449,318.868,10,366,438,555,623,2003
7930.01,0.0362915,0.00185853,0.00650583,-0.028785,0.00650583,-0.00265392,0.00797141,-0.028785,0.00797141,-0.0124314,-11537.2,844.035,-4286.71,844.035,-11887.5,926.27,-4286.71,926.27,-13431.2,10,391,394,395,566,2004
7204.89,0.0344771,0.0224807,-0.00136232,0.0194743,-0.00136232,-0.020676,-0.00280213,0.0194743,-0.00280213,0.011427,11725.6,-8.58829,2721.08,-8.58829,5697.31,-405.281,2721.08,-405.281,10107.7,10,434,435,439,620,2005
18285.5,0.0839132,0.0367137,0.0370953,-0.00273616,0.0370953,-0.0705468,-0.0155703,-0.00273616,-0.0155703,0.0314222,-5141.17,4792.24,-505.589,4792.24,-21494.4,-2185.53,-505.589,-2185.53,-6261.18,10,397,447,637,670,2006
12077.2,0.0550696,0.0243312,0.00013716,-0.00351798,0.00013716,-0.0578643,0.0100188,-0.00351798,0.0100188,0.0208912,-9873.31,-19.5219,-509.445,-19.5219,-21958.1,1156.86,-509.445,1156.86,-10300.3,10,397,447,449,492,2007
8539.54,0.0391881,0.0201609,-0.00285728,0.0186063,-0.00285728,-0.0336575,0.00683356,0.0186063,0.00683356,0.00218734,-7497.71,-285.415,2680.53,-285.415,-15377.1,929.717,2680.53,929.717,-10034.7,10,434,438,621,623,2008
4828.73,0.0220898,0,0,0.00056547,0,0,0.0171264,0.00056547,0.0171264,-0.0147312,-11761,2.82264,81.1339,2.82264,-11675.6,2457.31,81.1339,2457.31,-13993.5,10,359,360,501,587,2009
12941.5,0.0566186,0.02091,-0.0163116,0.017132,-0.0163116,-0.0600667,0.00662483,0.017132,0.00662483,0.00243181,-28759.3,-2063.48,2526.67,-2063.48,-41483.3,829.259,2526.67,829.259,-31647.3,10,438,621,623,624,2010
8482.83,0.0397899,0.0273429,0.00182167,0.0138819,0.00182167,-0.0115333,-0.0213168,0.0138819,-0.0213168,-0.0139462,3372.1,257.677,2026.19,257.677,-1838.26,-2954.1,2026.19,-2954.1,-2825.01,10,400,429,451,617,2011
5257.8,0.024646,0.00316035,-0.0161865,-0.00628327,-0.0161865,-0.0124154,-0.00541318,-0.00628327,-0.00541318,0.00924331,-226.37,-2267.91,-875.122,-2267.91,-2593.77,-777.811,-875.122,-777.811,564.326,10,487,491,660,661,2012
17087.8,0.0779273,0.0333106,0.0258453,0.0160804,0.0258453,-0.0718098,-0.00561834,0.0160804,-0.00561834,0.0307644,-8378.94,3103.31,2254.4,3103.31,-24432.5,-707.215,2254.4,-707.215,-9121.17,10,363,447,637,682,2013
7220.62,0.0319051,-0.0181718,-0.00160536,-0.00899642,-0.00160536,-0.0333746,-0.00287965,-0.00899642,-0.00287965,0.0171406,-30161.6,-53.3318,-1337.24,-53.3318,-32506.8,-571.943,-1337.24,-571.943,-24879.9,10,366,554,555,623,2014
9675.46,0.0475181,0.0258538,-0.0302412,0.00335057,-0.0302412,-0.0202707,0.00835584,0.00335057,0.00835584,0.0251098,24174.9,-3800.96,359.474,-3800.96,17128.8,1021.56,359.474,1021.56,23737.2,10,366,438,439,623,2015
8860.23,0.0422008,-0.000842487,0.0264737,0.0143334,0.0264737,-0.00524178,-0.0168565,0.0143334,-0.0168565,0.0174805,5917.13,3679.65,2185.03,3679.65,6108.02,-2306.41,2185.03,-2306.41,8764.87,10,435,436,439,619,2016
4889.96,0.0231053,0.0102744,-0.00970409,0.00345923,-0.00970409,-0.00904172,-0.0140837,0.00345923,-0.0140837,0.00342273,4319.72,-1370.27,494.232,-1370.27,1567.32,-1973.37,494.232,-1973.37,3369.68,10,656,657,658,695,2017
4663.65,0.0219053,0.00603489,-0.0035999,0.000828152,-0.0035999,-0.00704428,-0.0173595,0.000828152,-0.0173595,0.00201506,1032.99,-514.096,116.614,-514.096,-824.728,-2462.96,116.614,-2462.96,463.482,10,402,454,455,476,2018
8257.98,0.038566,0.00476136,0.015349,0.0130986,0.015349,0.00773768,-0.0240358,0.0130986,-0.0240358,-0.0133772,-1839.53,2129.03,1922.23,2129.03,-1238.54,-3380.64,1922.23,-3380.64,-4531.36,10,413,418,419,599,2019
2398.61,0.0113067,0.00306654,0.00311018,-0.00089206,0.00311018,-0.0015811,-0.00894209,-0.00089206,-0.00894209,0.00113404,2257.06,438.582,-131.677,438.582,1576.61,-1260.93,-131.677,-1260.93,2001.6,10,408,425,428,610,2020
2599.33,0.0122433,0.00407933,0.00291119,-0.00163319,0.00291119,-0.00237978,-0.00952931,-0.00163319,-0.00952931,0.000485934,2045.63,407.76,-236.824,407.76,1105.25,-1344.87,-236.824,-1344.87,1561.62,10,407,427,593,611,2021
4981.53,0.023296,0.00957466,0.00869447,0.00141705,0.00869447,-0.0122922,-0.0144122,0.00141705,-0.0144122,0.00119497,-459.775,1249.95,202.494,1249.95,-3572.71,-2048.01,202.494,-2048.01,-1622.92,10,418,419,604,693,2022
3459.41,0.0162035,0.00371114,0.0023444,-0.00218884,0.0023444,-0.00890885,-0.0114644,-0.00218884,-0.0114644,0.00419383,-545.166,322.877,-321.165,322.877,-2377.53,-1612.4,-321.165,-1612.4,-447.636,10,428,608,610,611,2023
2362.21,0.0112183,0.00394273,0.00281768,-0.00224086,0.00281768,-0.00201459,-0.00816524,-0.00224086,-0.00816524,0.00516519,5747.18,391.975,-319.361,391.975,4887.52,-1136,-319.361,-1136,5939.79,10,407,427,428,611,2024
11324.3,0.0505041,0.0196177,0.0146625,-0.0161265,0.0146625,-0.0518709,0.00120543,-0.0161265,0.00120543,0.00570284,-20285.4,1723,-2362.62,1723,-31341.7,64.6248,-2362.62,64.6248,-22513.2,10,488,492,493,670,2025
2947.25,0.0138127,0.00541695,0.00720971,0.00197721,0.00720971,-0.0105422,-0.00274347,0.00197721,-0.00274347,0.00436626,-67.9518,1066.13,270.658,1066.13,-2282.63,-350.803,270.658,-350.803,-170.896,10,461,478,482,654,2026
4206.27,0.0197971,0.0086414,0.00764914,0.000613408,0.00764914,-0.00838352,-0.0127133,0.000613408,-0.0127133,0.00183287,2319.32,1083.09,83.3038,1083.09,-95.3117,-1799.07,83.3038,-1799.07,1376.26,10,419,604,608,693,2027
3962.86,0.0186121,0.00207046,-0.00795165,-0.00528513,-0.00795165,-0.0094801,-0.00939862,-0.00528513,-0.00939862,0.0081642,462.081,-1119.3,-739.185,-1119.3,-1231.09,-1322.28,-739.185,-1322.28,1321.71,10,468,473,474,696,2028
2688.99,0.0127298,0.00740016,0.00175252,-0.000821555,0.00175252,-0.00622977,-0.00820326,-0.000821555,-0.00820326,0.00407191,4802.69,212.572,-135.595,212.572,2861.43,-1148.22,-135.595,-1148.22,4340.34,10,411,416,422,601,2029
2236.26,0.0105521,0.00311648,0.00273326,-0.00528966,0.00273326,-0.00547691,-0.00379915,-0.00528966,-0.00379915,0.00556463,2734.18,367.477,-756.862,367.477,1492.06,-514.444,-756.862,-514.444,3075.48,10,416,588,595,596,2030
1838.68,0.00862617,0.00043939,-0.00531511,0.00134489,-0.00531511,-0.00307513,-0.0042713,0.00134489,-0.0042713,0.00232231,-254.39,-751.311,200.547,-751.311,-781.049,-599.303,200.547,-599.303,12.5113,10,464,630,643,644,2031
4113.49,0.0193837,0.00690649,0.00534045,-0.00381945,0.00534045,-0.0104142,-0.0119203,-0.00381945,-0.0119203,0.00629449,2627.39,751.139,-548.004,751.139,143.464,-1663.26,-548.004,-1663.26,2568.87,10,423,424,428,608,2032
9056.06,0.0428001,0.0157898,0.0173142,0.0164153,0.0173142,-0.00563272,-0.0258115,0.0164153,-0.0258115,-0.0033497,5048.81,2415.7,2415.41,2415.7,2333.1,-3617.76,2415.41,-3617.76,2205.35,10,413,429,430,599,2033
2774.02,0.0130641,0.00650403,1.76735e-05,-0.00332437,1.76735e-05,-0.00358787,-0.00947642,-0.00332437,-0.00947642,-0.00079173,2312.55,-23.9549,-490.532,-23.9549,866.452,-1332.28,-490.532,-1332.28,1309.76,10,411,422,589,601,2034
2510.84,0.0118831,0.00408826,0.00142762,-0.00703368,0.00142762,-0.00433023,-0.00519157,-0.00703368,-0.00519157,0.00528029,4205.97,179.183,-997.474,179.183,2995.39,-705.223,-997.474,-705.223,4395.65,10,425,591,606,607,2035
5634.66,0.026538,0.00916638,-0.0186874,-0.00231604,-0.0186874,-0.0124822,-0.00594889,-0.00231604,-0.00594889,0.0062913,2765.03,-2597.4,-311.535,-2597.4,-458.142,-848.192,-311.535,-848.192,2279.91,10,442,443,641,660,2036
8247.15,0.0382173,0.000957806,-0.0307571,-0.00581221,-0.0307571,-0.0134321,-0.00250488,-0.00581221,-0.00250488,0.00690769,-5852.95,-4424.47,-817.591,-4424.47,-7958.14,-360.47,-817.591,-360.47,-5016.42,10,443,519,640,641,2037
8558.08,0.0400495,0.00095781,-0.031115,-0.00378292,-0.031115,-0.0107307,-0.0104641,-0.00378292,-0.0104641,0.0102993,-1421.24,-4426.33,-549.949,-4426.33,-3111.68,-1504.96,-549.949,-1504.96,-117.441,10,443,640,641,665,2038
8578.9,0.0400102,0.0127121,0.0261933,0.00719461,0.0261933,-0.0234125,-0.00813164,0.00719461,-0.00813164,0.00918123,-1148.95,3630.69,1011.44,3630.69,-6618.17,-1190.85,1011.44,-1190.85,-1811.31,10,369,432,437,613,2039
8409.51,0.0393163,-0.00502539,0.0321415,0.00147506,0.0321415,-0.00494252,-0.00714156,0.00147506,-0.00714156,0.0098223,-2849.73,4585.75,222.964,4585.75,-2584.24,-997.688,222.964,-997.688,-608.805,10,368,436,553,618,2040
6523.37,0.0304422,0.00631167,0.0205809,0.00324027,0.0205809,-0.0169654,-0.00788303,0.00324027,-0.00788303,0.00846148,-1821.16,2900.63,444.196,2900.63,-5295.66,-1118.8,444.196,-1118.8,-1580.49,10,432,433,613,694,2041
2771.44,0.012941,0.00146515,-0.00566223,-4.58405e-05,-0.00566223,-0.00980509,-0.005625,-4.58405e-05,-0.005625,0.0053396,-2241.22,-790.52,9.42205,-790.52,-3899.22,-786.381,9.42205,-786.381,-1695.84,10,475,644,649,697,2042
9504.47,0.0436338,0.0246141,0.005758,0.0134216,0.005758,-0.0424424,0.00150686,0.0134216,0.00150686,0.00735441,-6773.91,1124.85,1982.46,1124.85,-16368.1,49.4919,1982.46,49.4919,-9182.48,10,434,620,621,623,2043
2131.27,0.0100712,0.00500456,0.00099586,0.00247608,0.00099586,-0.00586145,-0.0054694,0.00247608,-0.0054694,0.00491509,3645.43,125.597,341.188,125.597,2105.53,-773.201,341.188,-773.201,3632.96,10,370,371,417,550,2044
4705.86,0.0218418,0.00482486,0.0137853,0.00351579,0.0137853,-0.0161851,-0.0023089,0.00351579,-0.0023089,0.00523527,-4477.39,1948.24,492.394,1948.24,-7585.75,-324.519,492.394,-324.519,-4460.44,10,369,370,388,551,2045
5009.59,0.0234121,0.00482487,0.0140544,0.00198997,0.0140544,-0.0140511,-0.00854457,0.00198997,-0.00854457,0.00732738,-1371.74,1974.34,272.593,1974.34,-4150.52,-1224.99,272.593,-1224.99,-1062.33,10,369,370,551,613,2046
12353.6,0.0565986,0.028801,0.00322435,0.00151501,0.00322435,-0.0578098,0.011408,0.00151501,0.011408,0.0194526,-7101.72,433.942,242.649,433.942,-19781,1377.12,242.649,1377.12,-8380.92,10,397,449,556,624,2047
8900.09,0.0416241,0.00174919,0.0330221,0.00329422,0.0330221,-0.00930824,-0.0110484,0.00329422,-0.0110484,0.00790103,-1596.06,4699.88,486.107,4699.88,-3200.39,-1591.89,486.107,-1591.89,-753.985,10,368,369,552,618,2048
5100.2,0.0239885,0.0118847,0.00941663,-0.00288074,0.00941663,-0.0146332,-0.0121012,-0.00288074,-0.0121012,0.00471946,2475.68,1319.53,-425.981,1319.53,-1319.64,-1693.84,-425.981,-1693.84,1490.96,10,419,424,608,693,2049
1833.58,0.00860842,0.00343076,0.00371695,-0.00272097,0.00371695,-0.00500493,-0.00381124,-0.00272097,-0.00381124,0.00168896,498.521,515.554,-394.239,515.554,-731.174,-527.952,-394.239,-527.952,241.518,10,416,417,588,595,2050
18523.1,0.0861826,0.0427315,-0.0323485,-0.00349309,-0.0323485,-0.0739771,-0.0126805,-0.00349309,-0.0126805,0.0376481,1765.04,-4078.52,-423.57,-4078.52,-15540.5,-1783.12,-423.57,-1783.12,761.753,10,363,364,365,556,2051
9248.06,0.042782,0.0132762,0.0193739,0.0172199,0.0193739,-0.0296129,-0.011275,0.0172199,-0.011275,0.010313,-4563.76,2493.44,2270.05,2493.44,-11535.4,-1514.78,2270.05,-1514.78,-5207.23,10,446,447,533,682,2052
2512.57,0.0118604,0.00177389,-0.000457545,0.000965608,-0.000457545,-0.00630291,-0.00727358,0.000965608,-0.00727358,0.00800383,2701.65,-59.9059,138.543,-59.9059,1531.63,-997.635,138.543,-997.635,3610.68,10,456,458,480,659,2053
3365.1,0.0157616,0.00417846,-0.00329607,0.00281702,-0.00329607,-0.0127916,-0.0069576,0.00281702,-0.0069576,0.00758261,-481.218,-445.366,413.793,-445.366,-2941.91,-931.997,413.793,-931.997,40.014,10,472,478,655,656,2054
5007.37,0.0235015,0.00652492,-0.0120936,0.000516082,-0.0120936,-0.0139474,-0.0107999,0.000516082,-0.0107999,0.0080747,730.638,-1725.6,93.4704,-1725.6,-2194.36,-1488.12,93.4704,-1488.12,1015.77,10,472,477,653,656,2055
5400.19,0.0257378,-0.00450463,0.0100926,-0.0172473,0.0100926,0.00119375,0.00375944,-0.0172473,0.00375944,0.0133687,5933.17,1278.79,-2472.34,1278.79,7170.84,373.899,-2472.34,373.899,8637.78,10,392,554,564,568,2056
9812.13,0.0444767,-0.0229764,-0.0231136,0.0219459,-0.0231136,-0.0114893,0.00728313,0.0219459,0.00728313,0.0166083,-19884.4,-3248.07,3234.82,-3248.07,-17302.6,886.775,3234.82,886.775,-13506.5,10,445,529,639,678,2057
10298.2,0.0454442,-0.0164045,0.00696582,-0.00392248,0.00696582,-0.0458034,0.0088756,-0.00392248,0.0088756,0.0286486,-30763.1,1356.82,-651.308,1356.82,-34928.8,1064.32,-651.308,1064.32,-23744,10,366,439,554,623,2058
6495.39,0.0301494,-0.0130257,0.0132971,-0.0156009,0.0132971,0.0135065,0.00854069,-0.0156009,0.00854069,-0.00590963,-7105.79,1832.58,-2277.49,1832.58,-3213.99,1192.88,-2277.49,1192.88,-6122.05,10,378,390,561,562,2059
5052.31,0.0233047,0.00771262,0.00277122,-0.0164237,0.00277122,-0.00985165,0.00621045,-0.0164237,0.00621045,-0.00760065,-6929.65,400.049,-2403.94,400.049,-9387.87,848.757,-2403.94,848.757,-9166.5,10,390,393,565,566,2060
7827.41,0.0365722,0.0126622,0.000546096,-0.000608223,0.000546096,0.0122826,-0.0226914,-0.000608223,-0.0226914,-0.0257719,-465.932,84.1066,-68.6733,84.1066,-1031.67,-3605.37,-68.6733,-3605.37,-5438.87,10,361,504,569,570,2061
9088.87,0.0424334,0.0135277,-0.0239519,-0.0172068,-0.0239519,-0.0244241,-0.00616526,-0.0172068,-0.00616526,0.0102919,-292.858,-3155.88,-2264.68,-3155.88,-6612.76,-830.207,-2264.68,-830.207,-1146.52,10,396,555,556,568,2062
3547.25,0.0163768,0,0,-0.00818359,0,0,0.0101645,-0.00818359,0.0101645,-0.00962193,-7587.4,-24.0233,-1169.89,-24.0233,-7576.91,1453.08,-1169.89,1453.08,-9045.35,10,357,358,393,538,2063
11851.7,0.0532339,0.0203607,0.00190362,-0.00827787,0.00190362,-0.0578029,0.0115486,-0.00827787,0.0115486,0.0155929,-17194.1,288.417,-1219.94,288.417,-28867.4,1441.91,-1219.94,1441.91,-17804.6,10,397,447,448,449,2064
12182.3,0.0553625,0.0276263,0.00303166,0.00422816,0.00303166,-0.0578029,0.0115486,0.00422816,0.0115486,0.0155929,-10901.5,393.25,647.364,393.25,-23504.4,1425.59,647.364,1425.59,-12570,10,397,448,449,556,2065
10155.7,0.0475516,0.0229278,0.0180839,-0.00690077,0.0180839,-0.0409373,-0.00483555,-0.00690077,-0.00483555,0.019882,2099.68,2112.56,-996.244,2112.56,-7425.76,-768.99,-996.244,-768.99,1453.7,10,446,493,638,670,2066
7765.03,0.0366994,-0.0137346,0.0233853,-0.00388463,0.0233853,-0.00532515,-0.00551746,-0.00388463,-0.00551746,0.0251134,625.389,3213.21,-484.217,3213.21,2534.44,-823.742,-484.217,-823.742,6463.47,10,366,367,439,554,2067
3659.57,0.0171768,0.00693714,0.00517017,-0.00169381,0.00517017,-0.0107095,-0.0101003,-0.00169381,-0.0101003,0.00406732,849.995,729.48,-249.351,729.48,-1687.71,-1412.14,-249.351,-1412.14,473.993,10,423,428,608,611,2068
14129.4,0.0630882,0.0270647,0.00565565,-3.09031e-05,0.00565565,-0.0581951,-0.0309184,-3.09031e-05,-0.0309184,0.00766243,-18982.3,1106.95,30.0186,1106.95,-32099.3,-4063.77,30.0186,-4063.77,-21372.4,10,363,506,556,571,2069
9714.67,0.0441627,-0.000226385,0.00746757,0.0243575,0.00746757,-0.0344583,0.00976967,0.0243575,0.00976967,0.0183776,-14677.3,977.158,3590.71,977.158,-19745.4,1560.83,3590.71,1560.83,-12087.1,10,533,678,681,682,2070
6943.37,0.0322461,-0.0124815,-0.0156558,0.0139159,-0.0156558,0.0163944,0.0096885,0.0139159,0.0096885,-0.00882982,-6799.27,-2169.12,2025.16,-2169.12,-2566.33,1382.89,2025.16,1382.89,-6300.19,10,526,527,672,676,2071
11394.2,0.0522707,0.0196391,0.0170375,-0.00710779,0.0170375,-0.0502352,0.00687487,-0.00710779,0.00687487,0.0210547,-7615.29,2011.22,-938.513,2011.22,-18221.3,789.802,-938.513,789.802,-7550.59,10,446,447,492,670,2072
7858.92,0.0341488,-0.00811603,-0.00698775,-0.00615247,-0.00698775,-0.0453571,0.00127694,-0.00615247,0.00127694,0.0095774,-36432,-1413.02,-923.224,-1413.02,-41805.7,112.978,-923.224,112.978,-33504.6,10,445,493,494,669,2073
5876.73,0.0277726,0.0149395,0.0142594,-0.00218756,0.0142594,-0.00969002,-0.0147032,-0.00218756,-0.0147032,-0.000133308,5031.31,2016.93,-310.569,2016.93,1553.75,-2068.48,-310.569,-2068.48,2922.79,10,418,419,424,693,2074
2903.87,0.0136774,0.00486902,-0.00783669,-0.00498264,-0.00783669,-0.00728021,-0.0024048,-0.00498264,-0.0024048,0.00463715,2161.86,-1095.05,-701.109,-1095.05,403.228,-345.251,-701.109,-345.251,2109.13,10,441,525,632,690,2075
10974.1,0.0505822,0.013622,0.0345963,0.00931437,0.0345963,-0.0302946,-0.00674446,0.00931437,-0.00674446,0.00963052,-6397.55,4903.2,1357.09,4903.2,-13024.9,-1033.58,1357.09,-1033.58,-7135.45,10,431,436,437,614,2076
2886.4,0.0135683,0.00566832,0.00934287,0.00275067,0.00934287,-0.00700084,0.000158197,0.00275067,0.000158197,0.00236672,1383.48,1313.69,384.267,1313.69,-452.732,19.0402,384.267,19.0402,890.969,10,372,388,550,581,2077
7029.86,0.0325186,0.00353459,0.0211401,0.000584547,0.0211401,-0.0207746,-0.0090844,0.000584547,-0.0090844,0.0100015,-6238.62,3020.68,57.7091,3020.68,-9830.7,-1290.1,57.7091,-1290.1,-5320.79,10,415,431,432,597,2078
4169.24,0.0197169,0.014385,0.0107729,-0.00220713,0.0107729,-0.0116213,0.00115775,-0.00220713,0.00115775,0.00219162,5339.74,1465.31,-311.03,1465.31,1590.24,177.62,-311.03,177.62,3575.52,10,388,578,579,581,2079
263.792,0.00123723,-0.000723367,0.000252946,-0.00090229,0.000252946,0.000179781,-0.000222098,-0.00090229,-0.000222098,-4.79498e-05,-551.349,35.8385,-128.162,35.8385,-422.701,-31.6651,-128.162,-31.6651,-454.845,10,353,354,376,691,2080
2028.67,0.00950346,-2.14544e-07,-0.00800558,0.00166416,-0.00800558,1.45878e-05,0.000632792,0.00166416,0.000632792,-0.0011897,-976.844,-1138.54,237.982,-1138.54,-1011.65,93.5481,237.982,93.5481,-1166.3,10,509,524,634,688,2081
715.62,0.00336986,0.0030866,0.00111296,-0.00137732,0.00111296,-0.00146808,-0.000273335,-0.00137732,-0.000273335,0.000208487,1804.91,153.992,-193.321,153.992,1154.74,-37.1345,-193.321,-37.1345,1392.19,10,385,544,576,691,2082
643.871,0.00302715,0.00218918,0.00117646,0.00144765,0.00117646,-0.00138561,0.000398744,0.00144765,0.000398744,5.89339e-05,951.657,163.388,206.14,163.388,441.054,55.3549,206.14,55.3549,648.689,10,385,544,545,576,2083
1516.09,0.00714218,-2.7454e-07,0.00558413,-0.00252529,0.00558413,0.00116775,-0.000556041,-0.00252529,-0.000556041,0.000964156,1557.04,790.843,-359.126,790.843,1702.69,-74.7242,-359.126,-74.7242,1681.28,10,375,385,386,545,2084
1032.05,0.0048163,-0.00452843,0.000292193,-0.00294296,0.000292193,-4.00764e-06,0.000199221,-0.00294296,0.000199221,0.000971293,-3358.96,41.2877,-425.627,41.2877,-2718.2,28.6574,-425.627,28.6574,-2584.56,10,354,381,541,576,2085
3287.26,0.0154733,0.00773395,0.0091942,-0.00371771,0.0091942,-0.00655866,0.00548945,-0.00371771,0.00548945,0.000744998,2292.03,1272.79,-507.071,1272.79,204.932,797.438,-507.071,797.438,1252.88,10,382,572,573,577,2086
6465.63,0.0301636,0.00208434,0.0193977,0.000706937,0.0193977,-0.015267,-0.0113899,0.000706937,-0.0113899,0.0107826,-2581.87,2742.98,72.8615,2742.98,-5182.23,-1614.22,72.8615,-1614.22,-1366.49,10,415,432,597,694,2087
1719.4,0.00810385,-3.77543e-07,-0.00598955,0.00347276,-0.00598955,0.00188527,-0.00061671,0.00347276,-0.00061671,0.000554192,1774.18,-848.361,493.105,-848.361,2016.98,-81.5923,493.105,-81.5923,1835.87,10,510,635,687,688,2088
942.093,0.00444496,0.00473887,-0.000516128,-0.00176616,-0.000516128,-0.00180255,0.000290382,-0.00176616,0.000290382,7.10167e-05,2913.78,-65.7451,-250.985,-65.7451,1988.19,39.1353,-250.985,39.1353,2254.87,10,510,511,520,687,2089
2779.7,0.0131023,0.0069818,-0.00818162,0.00365834,-0.00818162,-0.00495108,0.00357504,0.00365834,0.00357504,0.000620399,2805.05,-1141.08,505.089,-1141.08,1078.24,520.783,505.089,520.783,1869.74,10,516,517,521,684,2090
2286.1,0.0108302,0.000948516,-0.000618984,-0.00384197,-0.000618984,-0.000248028,-0.00809668,-0.00384197,-0.00809668,0.00490412,4212.34,-98.2303,-543.574,-98.2303,4021.86,-1127.14,-543.574,-1127.14,4804.35,10,426,590,591,606,2091
7137.66,0.0341025,-0.017202,0.0175182,0.0144053,0.0175182,0.0189173,-0.000270332,0.0144053,-0.000270332,0.0105956,5100.8,1989.54,2032.16,1989.54,10841,149.118,2032.16,149.118,9350.56,10,439,619,620,622,2092
6291.08,0.0294338,-0.00811502,-0.0204824,-0.0123892,-0.0204824,0.00141067,-0.0050171,-0.0123892,-0.0050171,0.00595626,-2823.4,-2899.55,-1785.22,-2899.55,-1374.95,-706.538,-1785.22,-706.538,-786.419,10,485,486,491,662,2093
2172.86,0.0101686,0,-0.00451181,0,-0.00451181,-0.00176211,-0.00749397,0,-0.00749397,0,-1449.26,-641.497,9.63317,-641.497,-1727.88,-1065.51,9.63317,-1065.51,-1439.06,10,462,463,475,629,2094
4000.34,0.0185723,0.00392498,0.00143283,-0.00260427,0.00143283,-0.0141748,-0.0118183,-0.00260427,-0.0118183,0.00408754,-4514.76,196.277,-379.487,196.277,-7146.22,-1672.01,-379.487,-1672.01,-4461.26,10,423,427,428,611,2095
5303.23,0.0248677,0.013031,-0.00420009,0.00232541,-0.00420009,0.000274395,-0.0164365,0.00232541,-0.0164365,-0.0130891,1262.85,-613.609,303.285,-613.609,-480.099,-2304.97,303.285,-2304.97,-2524.38,10,401,453,454,471,2096
4454.04,0.0208626,0.00562034,-0.0127176,-0.00236991,-0.0127176,-0.0126869,-0.00654303,-0.00236991,-0.00654303,0.00633811,-247.469,-1785.07,-326.078,-1785.07,-2922.08,-933.337,-326.078,-933.337,-177.087,10,442,641,642,660,2097
2164.79,0.0102117,-3.47701e-05,-0.00124561,-0.000408742,-0.00124561,-0.00662101,-0.00306865,-0.000408742,-0.00306865,0.00966004,2135.3,-177.821,-53.7723,-177.821,1189.93,-391.478,-53.7723,-391.478,3520.77,10,404,456,457,594,2098
6867.2,0.0324789,0.00498732,0.0249644,0.00362332,0.0249644,-0.00730977,-0.00931853,0.00362332,-0.00931853,0.00835185,4010.88,3510.21,502.558,3510.21,2185.28,-1308.03,502.558,-1308.03,4441.05,10,432,613,614,694,2099
2299.21,0.0108625,0.00587272,-0.00432154,0.000262123,-0.00432154,-0.00511595,-0.00607603,0.000262123,-0.00607603,0.00319504,3671.04,-602.98,47.5828,-602.98,2089.87,-842.861,47.5828,-842.861,3307.7,10,461,478,479,654,2100
6422.63,0.0303821,-0.00485866,0.0242485,0.00447621,0.0242485,0.000972584,0.00544284,0.00447621,0.00544284,0.00982425,2597.04,3406.58,615.873,3406.58,3575.61,780.364,615.873,780.364,4745.49,10,368,552,560,575,2101
7997.21,0.0376056,0.00335892,0.0280882,0.00751757,0.0280882,-0.00987917,-0.010764,0.00751757,-0.010764,0.00964355,1173.38,3958.9,1064.91,3958.9,-843.694,-1549.52,1064.91,-1549.52,1975.96,10,432,437,613,614,2102
8624.44,0.0401015,0.00174918,0.0327652,0.00475122,0.0327652,-0.0125702,-0.0017638,0.00475122,-0.0017638,0.00750411,-4212.04,4696.79,657.652,4696.79,-6306.73,-249.718,657.652,-249.718,-3408.39,10,368,369,552,575,2103
2623.44,0.0122308,2.39462e-07,0.00898013,0.00345503,0.00898013,-0.00625971,9.48497e-05,0.00345503,9.48497e-05,0.00229457,-3149.98,1277.56,490.855,1277.56,-4094.62,8.94037,490.855,8.94037,-2851.83,10,372,548,550,581,2104
5722.2,0.0267741,-0.00918178,0.017916,-0.00953684,0.017916,-7.47228e-05,0.00700319,-0.00953684,0.00700319,0.00832435,-2878.65,2534.99,-1393.71,2534.99,-1573.64,1022.04,-1393.71,1022.04,-429.851,10,379,559,574,575,2105
6944.59,0.0322909,0.00580865,0.021631,0.00451925,0.021631,-0.0182511,-0.00888757,0.00451925,-0.00888757,0.00826973,-3526.06,3056.22,629.387,3056.22,-7139.82,-1276.47,629.387,-1276.47,-3250.92,10,369,432,433,613,2106
10508.7,0.048563,-0.0145365,0.0386531,0.00204515,0.0386531,-0.00221609,-0.0104045,0.00204515,-0.0104045,0.0109367,-9669.54,5531.87,350.171,5531.87,-7385.79,-1494.67,350.171,-1494.67,-5762.34,10,367,368,436,553,2107
7631.72,0.0351839,-0.0205921,0.025225,0.00333379,0.025225,0.000732679,-0.00476688,0.00333379,-0.00476688,0.0108986,-11562.8,3520.64,533.092,3520.64,-7934.78,-675.477,533.092,-675.477,-6754.62,10,367,436,553,622,2108
3414.05,0.0160807,0.00667071,-0.00664811,-0.00178129,-0.00664811,-0.00937981,-0.00827465,-0.00178129,-0.00827465,0.0050555,2425.89,-908.169,-230.026,-908.169,89.17,-1164.35,-230.026,-1164.35,2185.07,10,468,475,650,697,2109
9565.98,0.041828,-0.0181718,-0.000930541,-0.0128235,-0.000930541,-0.0401097,0.0160661,-0.0128235,0.0160661,0.0188731,-34952.5,63.6162,-2188.94,63.6162,-38265.7,2429.72,-2188.94,2429.72,-29455.2,10,366,554,555,568,2110
4950.73,0.0231407,0.00741264,0.00631101,-0.00281072,0.00631101,-0.0166323,-0.0127018,-0.00281072,-0.0127018,0.00739198,-970.523,889.446,-411.234,889.446,-4432.71,-1787.76,-411.234,-1787.76,-955,10,423,424,608,693,2111
2434.09,0.0115025,0.000378116,0.00166962,-0.00233991,0.00166962,-0.0021772,-0.00859296,-0.00233991,-0.00859296,0.00591877,3002.93,234.06,-335.697,234.06,2617.8,-1200.74,-335.697,-1200.74,3803.25,10,407,428,592,611,2112
8557.35,0.0400429,-0.00459864,0.032622,0.00250304,0.032622,-0.00690437,-0.0050944,0.00250304,-0.0050944,0.0119823,-2386.41,4652.06,376.22,4652.06,-2472.97,-710.669,376.22,-710.669,91.7841,10,368,436,437,618,2113
3912.33,0.0183418,0.00396914,0.00257855,-0.000368542,0.00257855,-0.0103163,-0.0129002,-0.000368542,-0.0129002,0.0060076,-100.478,363.503,-54.0175,363.503,-2161.79,-1815.32,-54.0175,-1815.32,220.973,10,423,609,611,612,2114
2331.55,0.0109099,0,-0.00512853,0,-0.00512853,-0.00181524,-0.00786572,0,-0.00786572,0,-1506.57,-729.22,11.4946,-729.22,-1797.81,-1118.42,11.4946,-1118.42,-1496.43,10,461,462,479,628,2115
6580.7,0.0314181,0.0170629,0.0207682,0.000225673,0.0207682,-0.0119737,-0.00964213,0.000225673,-0.00964213,0.00649537,9972.1,2865.13,9.92273,2865.13,5795.12,-1325.03,9.92273,-1325.03,8454.43,10,415,416,433,694,2116
7735.48,0.0366101,-0.000866329,0.0303733,0.00195489,0.0303733,-0.00222275,-0.00585748,0.00195489,-0.00585748,0.00995763,2922.94,4267.26,339.765,4267.26,3745.78,-767.103,339.765,-767.103,4943.56,10,367,439,554,622,2117
3962.81,0.0184136,0.0037308,0.000402504,-0.000407379,0.000402504,-0.0162161,-0.00988214,-0.000407379,-0.00988214,0.00681563,-4164.17,49.5412,-59.9269,49.5412,-7060.33,-1376.94,-59.9269,-1376.94,-3686.87,10,423,427,611,612,2118
10425.8,0.0481621,-0.0136198,-0.038361,-0.00434801,-0.038361,-0.00275067,-0.0102949,-0.00434801,-0.0102949,0.0102843,-9681.42,-5497.61,-673.698,-5497.61,-7645.92,-1474.39,-673.698,-1474.39,-6011.4,10,444,639,640,665,2119
9680.22,0.0422879,-0.0194877,0.000687524,0.0118437,0.000687524,-0.0407498,0.015452,0.0118437,0.015452,0.0203393,-35595.3,-93.4952,2021.57,-93.4952,-38798.5,2347.92,2021.57,2347.92,-29634.8,10,445,446,533,638,2120
7036.18,0.0331389,0.00908859,0.0241823,0.00111493,0.0241823,-0.012958,-0.00931536,0.00111493,-0.00931536,0.00744461,2724.33,3387.49,130.606,3387.49,-560.892,-1308.41,130.606,-1308.41,2423.79,10,415,432,433,694,2121
7209.37,0.0331124,-0.0206167,-0.0225648,-0.00574097,-0.0225648,-0.00138245,-0.00568744,-0.00574097,-0.00568744,0.0105891,-13239.9,-3152.54,-894.52,-3152.54,-9944.14,-806.669,-894.52,-806.669,-8483.89,10,444,494,639,666,2122
4647.61,0.0216911,0.000952404,0.0103307,0.00844184,0.0103307,-0.00645811,-0.0123014,0.00844184,-0.0123014,0.00267919,-2533.34,1456.19,1192.86,1456.19,-3664.27,-1773.14,1192.86,-1773.14,-2338.06,10,420,597,598,602,2123
4765.38,0.0223933,0.0060107,-0.0130903,-0.00298822,-0.0130903,-0.00845711,-0.0116275,-0.00298822,-0.0116275,0.00376159,1257.34,-1840.98,-411.754,-1840.98,-841.625,-1655.87,-411.754,-1655.87,916.826,10,645,649,650,697,2124
7985.5,0.0375778,0.000596784,-0.0289302,-0.00875466,-0.0289302,-0.00466123,-0.0103697,-0.00875466,-0.0103697,0.00761621,1052.01,-4092.29,-1249.04,-4092.29,284.045,-1480.94,-1249.04,-1480.94,2019.15,10,491,660,661,665,2125
5343.02,0.0253345,0.00138846,-0.0191907,0.00419283,-0.0191907,-0.00695777,0.000442796,0.00419283,0.000442796,0.012503,4492.46,-2720.82,609.161,-2720.82,3613.1,60.865,609.161,60.865,6205.69,10,444,515,529,674,2126
8056.73,0.0372237,0.0263047,0.00843361,0.00657985,0.00843361,-0.0145862,-0.0172475,0.00657985,-0.0172475,-0.0191984,-3596.67,1255.97,1067.83,1255.97,-9161.42,-2421.46,1067.83,-2421.46,-10371.8,10,400,451,452,617,2127
5380.95,0.0254901,-0.000570492,0.0187981,-0.00384389,0.0187981,-0.00702783,0.00185921,-0.00384389,0.00185921,0.013973,3798.26,2660.05,-572.51,2660.05,3164.85,274.382,-572.51,274.382,5974.95,10,380,553,560,564,2128
6849.53,0.0320471,-0.0031351,-0.0250781,-0.00356429,-0.0250781,-0.00971846,0.000328243,-0.00356429,0.000328243,0.0123646,-2118.52,-3582.54,-479.213,-3582.54,-2973.09,73.8853,-479.213,73.8853,129.869,10,443,444,515,640,2129
7048.72,0.0330675,-0.0031351,-0.0251298,-0.00327088,-0.0251298,-0.00597705,-0.0101013,-0.00327088,-0.0101013,0.0103267,-909.14,-3571.28,-483.934,-3571.28,-1222.59,-1440.65,-483.934,-1440.65,1036.47,10,443,444,640,665,2130
1753.06,0.00823631,0.00482306,0.00238605,0.000594306,0.00238605,-0.00415203,-0.00496184,0.000594306,-0.00496184,-0.00013352,1013.87,328.089,76.8118,328.089,-279.365,-701.255,76.8118,-701.255,312.605,10,417,549,588,595,2131
7345.14,0.0337225,0.0144835,-0.00688733,-0.00100046,-0.00688733,-0.00836337,-0.0230265,-0.00100046,-0.0230265,-0.0177069,-8090.31,-1026,-199.985,-1026,-11282.3,-3312.06,-199.985,-3312.06,-12867.8,10,400,401,453,465,2132
2528.13,0.0119099,0.00740384,-0.00811063,-0.000261354,-0.00811063,-0.00492004,0.00136277,-0.000261354,0.00136277,-0.00021434,2608.5,-1132.64,-37.7573,-1132.64,827.104,196.258,-37.7573,196.258,1510.48,10,524,525,633,689,2133
2023.47,0.00939586,0,-0.00660131,8.67362e-19,-0.00660131,-0.00645565,-0.00295679,8.67362e-19,-0.00295679,0,-4974.19,-941.522,5.60465,-941.522,-5928.57,-421.717,5.60465,-421.717,-4984.19,10,441,507,631,632,2134
6439.2,0.0303763,-0.00411292,-0.0246529,-0.00557392,-0.0246529,-0.000266064,0.00321189,-0.00557392,0.00321189,0.00865348,1461.26,-3479.59,-777.898,-3479.59,2132.62,463.457,-777.898,463.457,3327.55,10,443,515,519,640,2135
2388.11,0.011249,0.00529618,0.00869706,-0.000677457,0.00869706,-0.00330216,-0.000322816,-0.000677457,-0.000322816,0.000184804,2262.33,1220.2,-97.8803,1220.2,1003.13,-41.615,-97.8803,-41.615,1517.59,10,373,387,580,581,2136
2144.05,0.00991488,0,0.00640029,0,0.00640029,-0.00889588,-0.00252707,0,-0.00252707,0,-6836.09,914.354,-4.66338,914.354,-8144.01,-361.02,-4.66338,-361.02,-6846.06,10,371,372,548,550,2137
2144.05,0.00991488,0,0.00640029,0,0.00640029,-0.00889588,-0.00252707,0,-0.00252707,0,-6836.09,914.354,-4.66338,914.354,-8144.01,-361.02,-4.66338,-361.02,-6846.06,10,371,548,549,550,2138
7075.68,0.0332388,0.00138334,-0.019851,0.00885997,-0.019851,-0.0110265,0.0150557,0.00885997,0.0150557,0.0116899,242.628,-2822.4,1382.31,-2822.4,-1131.1,2179.31,1382.31,2179.31,1740.18,10,515,528,529,674,2139
1727.08,0.00813009,0,-0.00689482,0,-0.00689482,0.00170655,-0.00103175,0,-0.00103175,0,1221.39,-978.016,2.01489,-978.016,1435.84,-146.351,2.01489,-146.351,1208.23,10,510,634,635,688,2140
3919.19,0.0185583,0.00729419,-0.0133672,0.00307256,-0.0133672,-0.00522785,0.00536532,0.00307256,0.00536532,0.00360142,4923.86,-1860.58,426.617,-1860.58,3084.94,767.567,426.617,767.567,4358.02,10,517,518,672,685,2141
2313.69,0.0108239,0,-0.00930425,0,-0.00930425,-0.00195302,-0.000163542,0,-0.000163542,0,-1591.23,-1323.08,0.433683,-1323.08,-1918.9,-23.256,0.433683,-23.256,-1615.9,10,509,524,633,634,2142
2769.99,0.0128269,0,-0.0101057,0,-0.0101057,-0.00798631,-0.000100479,0,-0.000100479,0,-6209.95,-1442.94,0.292375,-1442.94,-7418.54,-14.3468,0.292375,-14.3468,-6239.36,10,508,525,632,633,2143
2769.99,0.0128269,0,-0.0101057,0,-0.0101057,-0.00798631,-0.000100479,0,-0.000100479,0,-6209.95,-1442.94,0.292375,-1442.94,-7418.54,-14.3468,0.292375,-14.3468,-6239.36,10,507,508,525,632,2144
2295.53,0.0108132,0.00205397,0.00923033,-0.000500322,0.00923033,-0.000622321,0.000673248,-0.000500322,0.000673248,0.000747745,1808.48,1303.79,-73.6764,1303.79,1401.64,99.0418,-73.6764,99.0418,1608.27,10,374,386,387,580,2145
1882.53,0.00883332,-2.30541e-07,0.00743597,-0.0017882,0.00743597,-0.000204958,-0.000125487,-0.0017882,-0.000125487,-6.06751e-06,-236.723,1055.68,-256.211,1055.68,-298.197,-13.9669,-256.211,-13.9669,-255.027,10,374,386,546,580,2146
2204.45,0.0103193,0,0.0088315,0,0.0088315,-0.00159309,-0.00101245,0,-0.00101245,0,-1308.88,1255.54,-2.5468,1255.54,-1580.49,-143.936,-2.5468,-143.936,-1330.81,10,373,374,546,580,2147
2689.2,0.0125201,0,0.0104158,0,0.0104158,-0.00477697,-0.0012125,0,-0.0012125,0,-3768.17,1484,-3.61682,1484,-4514.76,-172.752,-3.61682,-172.752,-3798.82,10,372,373,547,581,2148
2689.2,0.0125201,0,0.0104158,0,0.0104158,-0.00477697,-0.0012125,0,-0.0012125,0,-3768.17,1484,-3.61682,1484,-4514.76,-172.752,-3.61682,-172.752,-3798.82,10,372,547,548,581,2149
2442.76,0.0114081,-1.12385e-07,0.00963696,-0.000993018,0.00963696,-0.00321429,-0.000116373,-0.000993018,-0.000116373,0.000254875,-2365.6,1370.69,-144.854,1370.69,-2877.78,-12.765,-144.854,-12.765,-2356.22,10,373,547,580,581,2150
6049.33,0.0284932,0.00824923,0.0198083,0.00313842,0.0198083,-0.0123451,-0.00846298,0.00313842,-0.00846298,0.00728356,2675.1,2752.8,427.288,2752.8,-421.148,-1209.84,427.288,-1209.84,2442.96,10,369,551,613,618,2151
2174.79,0.0101463,0,0.000616245,0,0.000616245,-0.00361453,-0.00851325,0,-0.00851325,0,-2854.52,87.7272,-1.49934,87.7272,-3391.95,-1211.93,-1.49934,-1211.93,-2833.91,10,406,427,593,594,2152
4461.78,0.0207724,0.00197733,0.0112161,0.00206435,0.0112161,-0.0154729,-0.00577784,0.00206435,-0.00577784,0.00913118,-3490.84,1565.61,270.746,1565.61,-6107.67,-802.848,270.746,-802.848,-2504.77,10,415,416,596,694,2153
2348.37,0.0110216,0.000438856,0.0025994,-0.0011065,0.0025994,-0.00157525,-0.00900882,-0.0011065,-0.00900882,0.0011225,-92.2808,368.392,-163.093,368.392,-401.939,-1275.85,-163.093,-1275.85,22.4433,10,408,425,591,610,2154
2523.77,0.0118795,0.000234846,2.20692e-05,0.00171269,2.20692e-05,-0.00622648,-0.00734144,0.00171269,-0.00734144,0.00776163,1198.5,9.91397,243.817,9.91397,254.847,-1010.65,243.817,-1010.65,2294.69,10,458,459,480,659,2155
2535.53,0.0119451,0.00200729,-0.00198918,-0.000109756,-0.00198918,-0.00942015,-0.00323478,-0.000109756,-0.00323478,0.00970275,1837.52,-286.958,-10.966,-286.958,208.475,-409.131,-10.966,-409.131,2943.68,10,404,427,456,594,2156
2538.75,0.0120162,0.00247365,-0.00401513,-0.000194444,-0.00401513,-0.00232225,-0.00885895,-0.000194444,-0.00885895,0.00494442,4018.13,-561.16,-21.4973,-561.16,3319.18,-1241.45,-21.4973,-1241.45,4382.24,10,482,627,655,658,2157
2447.98,0.011462,0,-0.00236607,0,-0.00236607,-0.00141392,-0.00960565,0,-0.00960565,0,-1224.19,-336.343,6.47202,-336.343,-1454.97,-1365.47,6.47202,-1365.47,-1199.51,10,461,482,627,628,2158
7965.47,0.0343949,-0.0102477,0.00645391,0.00437132,0.00645391,-0.0468716,0.00239247,0.00437132,0.00239247,0.00960227,-39596.5,1366.58,627.35,1366.58,-44911.5,287.085,627.35,287.085,-36318.4,10,439,554,622,623,2159
4165.96,0.0196243,0.00478495,-0.0134465,0.00118288,-0.0134465,-0.00784984,-0.00703326,0.00118288,-0.00703326,0.00566126,2186.97,-1895.2,182.928,-1895.2,353.628,-981.157,182.928,-981.157,2305.02,10,644,645,649,697,2160
7654.19,0.0350144,0.0143102,0.00523873,-0.0086837,0.00523873,-0.0158866,-0.0233775,-0.0086837,-0.0233775,-0.0120376,-9682.63,722.855,-1299.95,722.855,-13880.9,-3376.85,-1299.95,-3376.85,-13908.1,10,451,452,483,664,2161
2441.75,0.0115439,0.00510165,-0.00519829,-0.00284734,-0.00519829,-1.1773e-05,-0.0074015,-0.00284734,-0.0074015,-0.000694546,3873.91,-737.083,-395.6,-737.083,3131.02,-1043.04,-395.6,-1043.04,3072.28,10,461,482,628,654,2162
10197.1,0.0461447,0.0242253,-0.00459915,0.017196,-0.00459915,-0.0435082,-0.00990795,0.017196,-0.00990795,0.000608063,-13183.6,-549.098,2543.48,-549.098,-23086.8,-1674.38,2543.48,-1674.38,-16830.6,10,434,451,617,621,2163
2947.23,0.013872,0.00433464,0.000910146,0.004769,0.000910146,-0.00987843,-0.00600259,0.004769,-0.00600259,0.00736008,1743.23,160.692,679.485,160.692,-279.706,-811.189,679.485,-811.189,2208.35,10,478,482,654,655,2164
3125.27,0.0146982,0.00725198,0.0108376,-0.000210013,0.0108376,-0.00588038,-0.00112126,-0.000210013,-0.00112126,-3.40791e-06,1824.05,1521.82,-32.9997,1521.82,-84.4517,-158.131,-32.9997,-158.131,772.67,10,372,373,388,581,2165
7589.38,0.0357436,-0.0155283,-0.0207214,0.00171154,-0.0207214,-0.00639179,-0.00746562,0.00171154,-0.00746562,0.0257534,-1179.18,-2839.75,135.384,-2839.75,764.556,-1107.79,135.384,-1107.79,4973.03,10,445,638,639,669,2166
9370.23,0.0420415,0.00115155,-0.00915337,-0.0190174,-0.00915337,-0.0411342,0.00289445,-0.0190174,0.00289445,0.0157062,-20275,-1144.61,-2809.01,-1144.61,-26815.2,666.445,-2809.01,666.445,-18369.5,10,395,396,568,571,2167
4131.31,0.0193987,0.00975291,-0.00869405,0.00127818,-0.00869405,-0.014659,-0.00588221,0.00127818,-0.00588221,0.00556417,1454.28,-1192.48,198.364,-1192.48,-2081.79,-811.33,198.364,-811.33,839.942,10,469,644,645,697,2168
15955.3,0.0726246,0.0265473,-0.00315074,0.00457543,-0.00315074,-0.0706094,-0.0227889,0.00457543,-0.0227889,0.0339787,-10510.3,-415.018,684.432,-415.018,-24837.2,-3114.64,684.432,-3114.64,-9330.97,10,363,364,448,556,2169
7131.78,0.0321246,-0.0252183,-0.0120996,-0.000966894,-0.0120996,-0.0153846,0.011197,-0.000966894,0.011197,0.0175315,-22679.5,-1703.31,-2.82107,-1703.31,-20869.8,1714.6,-2.82107,1714.6,-16217.4,10,444,445,529,639,2170
15346,0.0726217,0.0480964,-0.0310753,0.0067309,-0.0310753,-0.054371,0.0123905,0.0067309,0.0123905,0.019181,10250.3,-3944.87,791.005,-3944.87,-4786.88,1484.34,791.005,1484.34,6008.6,10,397,398,438,624,2171
11627.2,0.0521263,0.0190741,0.0255793,-0.0126318,0.0255793,-0.0472991,0.000838493,-0.0126318,0.000838493,0.00501435,-17947,3478.79,-1777.38,3478.79,-28357.4,-26.4339,-1777.38,-26.4339,-20301.9,10,450,488,492,670,2172
2036.94,0.00965574,0.00588237,-0.00346503,-0.000178092,-0.00346503,-0.0047625,-0.00484982,-0.000178092,-0.00484982,0.00481591,5195.62,-474.567,-18.5021,-474.567,3680.31,-680.128,-18.5021,-680.128,5040.14,10,441,631,642,643,2173
6337.36,0.029877,0.00373892,0.00181505,0.0176027,0.00181505,0.0178243,0.00602119,0.0176027,0.00602119,-0.0177039,2345.49,459.156,2522.81,459.156,4376.48,502.82,2522.81,502.82,-711.338,10,531,534,535,680,2174
7573.14,0.0352324,-0.0219107,-0.021587,0.00185339,-0.021587,-0.000429601,0.00685083,0.00185339,0.00685083,0.0187931,-7585.5,-2948.94,386.729,-2948.94,-4015.45,1019.25,386.729,1019.25,-1541.43,10,444,529,639,674,2175
5927.7,0.0283193,-0.00636764,-0.0172086,0.0133069,-0.0172086,0.00607607,0.00634843,0.0133069,0.00634843,0.0120111,6918.08,-2341.3,1922.58,-2341.3,8790.91,886.402,1922.58,886.402,9471.85,10,514,515,528,674,2176
10848,0.0508253,-0.0107526,-0.0379148,-0.0105717,-0.0379148,0.00433329,-0.0167401,-0.0105717,-0.0167401,0.00915897,-2774.15,-5338.96,-1592.5,-5338.96,-318.524,-2395.12,-1592.5,-2395.12,134.477,10,491,661,662,666,2177
4498.11,0.0214951,-0.000904856,-0.00944203,0.0110853,-0.00944203,0.00733164,0.0107958,0.0110853,0.0107958,0.00493085,7876.24,-1291.48,1566.66,-1291.48,9046.09,1506.63,1566.66,1506.63,8633.93,10,513,514,527,673,2178
3009.84,0.0141723,-0.00139776,0.00816638,0.000518533,0.00816638,0.00356083,-0.00877903,0.000518533,-0.00877903,-9.78472e-05,1109.26,1154.3,70.0501,1154.3,1812.49,-1245.91,70.0501,-1245.91,1321.58,10,409,425,426,591,2179
6035.86,0.028224,0.0098945,0.00988199,-0.00484607,0.00988199,-0.0126745,-0.0186018,-0.00484607,-0.0186018,0.00158001,-453.87,1419.66,-685.482,1419.66,-3675.1,-2647.65,-685.482,-2647.65,-1660.41,10,418,423,424,693,2180
2050.58,0.00971361,0.00191143,-0.000726867,0.00166191,-0.000726867,-0.00380101,-0.00600594,0.00166191,-0.00600594,0.00740614,4314.56,-99.2203,238.202,-99.2203,3490.08,-826.56,238.202,-826.56,5104.68,10,481,626,658,659,2181
2154.95,0.0100585,0,-0.00128051,0,-0.00128051,-0.00333173,-0.00839881,0,-0.00839881,0,-2638.18,-182.256,3.07217,-182.256,-3135.13,-1195.41,3.07217,-1195.41,-2618.5,10,460,626,627,658,2182
9755.14,0.0420857,-0.0144139,-0.0108037,-0.0147387,-0.0108037,-0.0476647,-0.00364969,-0.0147387,-0.00364969,0.014941,-40739.3,-1930.14,-2355.6,-1930.14,-45371.2,-650.681,-2355.6,-650.681,-35985.6,10,489,493,494,669,2183
10325.4,0.0455827,-0.0173,-0.00927299,0.00121925,-0.00927299,-0.0453094,0.00708686,0.00121925,0.00708686,0.0293049,-30749.1,-1663.01,182.39,-1663.01,-34637.7,780.952,182.39,780.952,-23471.3,10,445,493,638,669,2184
2504.52,0.011711,0,0.00551761,0,0.00551761,-0.00221282,-0.00841331,0,-0.00841331,0,-1827.69,784.767,-13.237,784.767,-2180.73,-1196.62,-13.237,-1196.62,-1816.19,10,411,588,589,601,2185
2087.63,0.00982703,0,0.00445161,0,0.00445161,0.00173232,-0.00718406,0,-0.00718406,0,1196.43,631.46,-9.05851,631.46,1415.93,-1019.06,-9.05851,-1019.06,1205.44,10,410,411,422,589,2186
2495.99,0.0117159,0,0.00222658,0,0.00222658,8.69054e-05,-0.00989884,0,-0.00989884,0,-98.1325,316.199,-6.26076,316.199,-116.44,-1405.75,-6.26076,-1405.75,-71.7069,10,410,589,590,606,2187
6073.75,0.0288368,0.0107561,-0.0220318,0.00494541,-0.0220318,-0.00900687,0.00256076,0.00494541,0.00256076,0.00624512,6632.15,-3044.59,702.31,-3044.59,3674.19,413.327,702.31,413.327,5879.48,10,518,519,523,686,2188
2381.58,0.011205,-0.000152431,-5.39346e-05,0.00265308,-5.39346e-05,0.0100848,-0.000902334,0.00265308,-0.000902334,-0.00846235,935.082,7.22826,377.831,7.22826,2375.41,-216.582,377.831,-216.582,-228.071,10,360,501,502,503,2189
2505.27,0.0117089,0,0,-0.00935232,0,0,0.00364375,-0.00935232,0.00364375,-0.00249821,-2027.05,-9.72177,-1330.43,-9.72177,-2048.22,518.347,-1330.43,518.347,-2437.1,10,356,357,389,539,2190
4869.48,0.0230699,0.00588151,-0.0130823,0.00136819,-0.0130823,-0.00847864,-0.0118416,0.00136819,-0.0118416,0.00885584,4921.44,-1826.58,205.611,-1826.58,2853.18,-1661.85,205.611,-1661.85,5330.37,10,468,469,645,697,2191
2271.6,0.0106463,0,0.0030119,0,0.0030119,-0.000871111,-0.0086996,0,-0.0086996,0,-791.474,427.987,-7.45439,427.987,-942.079,-1236.2,-7.45439,-1236.2,-772.523,10,408,591,592,610,2192
3669.28,0.0172542,0.00310644,-0.00724393,-0.00310055,-0.00724393,-0.0120212,-0.00558055,-0.00310055,-0.00558055,0.010325,1178.09,-994.112,-429.504,-994.112,-1041.5,-780.208,-429.504,-780.208,2171.7,10,467,473,651,696,2193
2447.98,0.011462,0,-0.00236607,0,-0.00236607,-0.00141392,-0.00960565,0,-0.00960565,0,-1224.19,-336.343,6.47202,-336.343,-1454.97,-1365.47,6.47202,-1365.47,-1199.51,10,460,461,482,627,2194
5014.54,0.02376,0.0058815,-0.0150479,-0.000974302,-0.0150479,-0.00699788,-0.0115285,-0.000974302,-0.0115285,0.00749894,4986.61,-2097.69,-117.572,-2097.69,3098.56,-1623.09,-117.572,-1623.09,5194.26,10,468,469,645,661,2195
1982.43,0.00940521,0.00447451,0.00359213,-0.00284348,0.00359213,-0.00225948,-0.00554965,-0.00284348,-0.00554965,0.00421531,5373.11,489.834,-411.663,489.834,4395.46,-767.305,-411.663,-767.305,5351.96,10,421,589,601,602,2196
3219.67,0.0152398,0.00795936,0.00673683,-0.00198054,0.00673683,-0.00937777,-0.00561668,-0.00198054,-0.00561668,0.00667815,4818.25,924.78,-296.151,924.78,2331.13,-764.716,-296.151,-764.716,4644.19,10,420,602,603,606,2197
4355.01,0.0203629,0.0054586,-0.00564256,-0.00389875,-0.00564256,-0.0159255,-0.00923758,-0.00389875,-0.00923758,0.00865487,-1072.77,-770.639,-537.308,-770.639,-4188.35,-1290.26,-537.308,-1290.26,-619.584,10,473,474,651,696,2198
2088.8,0.00985396,0,0.00199466,0,0.00199466,0.00304022,-0.00810961,0,-0.00810961,0,2177.33,282.696,-4.57186,282.696,2586.13,-1149.35,-4.57186,-1149.35,2194.79,10,409,410,426,590,2199
3141.6,0.0147203,0.00142298,-0.00177479,-0.0051457,-0.00177479,-0.00238983,-0.0113637,-0.0051457,-0.0113637,0.000112791,-715.519,-273.036,-740.826,-273.036,-1280.21,-1605.96,-740.826,-1605.96,-846.204,10,410,426,590,606,2200
1956.67,0.00920421,0,0,0.00756253,0,0,0.00240464,0.00756253,0.00240464,0.00130078,895.77,5.15449,1073.04,5.15449,881.198,341.192,1073.04,341.192,1046.06,10,498,584,585,671,2201
831.553,0.00391976,-1.1134e-07,-0.00232206,0.00162024,-0.00232206,0.00240826,-0.00126446,0.00162024,-0.00126446,3.28e-05,1824.64,-329.448,229.616,-329.448,2161.41,-177.817,229.616,-177.817,1826.33,10,511,636,687,692,2202
106.467,0.000500406,0,0,0.000137088,0,0,-0.000130932,0.000137088,-0.000130932,0.000674985,508.95,-0.00509185,19.4577,-0.00509185,508.949,-18.584,19.4577,-18.584,604.674,10,353,354,542,691,2203
2469.7,0.0115401,0,0,0.00916985,0,0,0.003671,0.00916985,0.003671,-0.00263691,-2128.11,9.60551,1304.59,9.60551,-2148.26,522.27,1304.59,522.27,-2556.16,10,499,585,586,675,2204
1754.83,0.00827236,0.00179746,-0.00327414,0.00474622,-0.00327414,-0.00133658,0.00380284,0.00474622,0.00380284,0.00209615,2112,-459.636,668.29,-459.636,1650.76,541.953,668.29,541.953,2136.5,10,497,516,584,683,2205
4481.15,0.0210238,0.0106683,-0.00842622,-0.00227639,-0.00842622,-0.0155973,-0.00795827,-0.00227639,-0.00795827,0.00518635,1202.17,-1150.63,-297.276,-1150.63,-2610.33,-1110.25,-297.276,-1110.25,411.441,10,474,650,651,696,2206
1209.9,0.00567329,0.0016379,-0.00414576,-0.00129504,-0.00414576,-0.00276562,0.000304685,-0.00129504,0.000304685,0.000438102,-313.347,-581.245,-185.523,-581.245,-967.016,43.344,-185.523,43.344,-495.4,10,509,521,524,688,2207
2297.88,0.0107718,0,0,0.00919006,0,0,0.00154499,0.00919006,0.00154499,-0.000735281,-670.701,4.03851,1305.78,4.03851,-694.044,219.522,1305.78,219.522,-823.992,10,499,500,526,586,2208
1929.64,0.00907651,0,0,-0.00748105,0,0,0.00230025,-0.00748105,0.00230025,0.00126087,868.119,-4.87791,-1061.5,-4.87791,853.755,326.388,-1061.5,326.388,1013.59,10,355,356,377,540,2209
5080.32,0.0240379,-0.00420507,0.00593511,-0.0140608,0.00593511,0.016955,0.00521076,-0.0140608,0.00521076,-0.00719117,2915.63,750.906,-1997.01,750.906,5923.02,670.351,-1997.01,670.351,2413.7,10,390,561,562,565,2210
1366.17,0.00643482,0,0,-0.00544222,0,0,0.000289888,-0.00544222,0.000289888,0.00201494,1478.44,-0.446593,-771.791,-0.446593,1470.08,41.1106,-771.791,41.1106,1746.84,10,354,355,381,541,2211
2174.79,0.0101463,0,0.000616245,0,0.000616245,-0.00361453,-0.00851325,0,-0.00851325,0,-2854.52,87.7272,-1.49934,87.7272,-3391.95,-1211.93,-1.49934,-1211.93,-2833.91,10,406,407,427,593,2212
2133.49,0.0100448,0.000543495,0.00126987,-0.00413098,0.00126987,-0.00341566,-0.00635807,-0.00413098,-0.00635807,0.00472497,1351.36,166.92,-588.708,166.92,767.404,-882.508,-588.708,-882.508,1973.86,10,425,426,591,606,2213
2468.05,0.0115473,-0.0017928,-0.00636535,-0.000705677,-0.00636535,-0.00335428,-0.00685188,-0.000705677,-0.00685188,0.00328244,-1814.86,-904.304,-92.5806,-904.304,-2065.77,-973.872,-92.5806,-973.872,-1091.92,10,464,470,475,644,2214
2135.74,0.00999442,0,0.00228343,0,0.00228343,-0.00179966,-0.00828388,0,-0.00828388,0,-1477.7,324.669,-5.38955,324.669,-1756.6,-1177.84,-5.38955,-1177.84,-1459.63,10,408,409,425,591,2215
2379.09,0.0112041,0.00311964,0.00342022,-0.000387654,0.00342022,-0.00110956,-0.00880438,-0.000387654,-0.00880438,3.81651e-05,1837.27,482.636,-61.5097,482.636,1213.24,-1244.57,-61.5097,-1244.57,1420.35,10,408,428,592,610,2216
2408.31,0.0112604,0,0.00212727,0,0.00212727,-0.00226467,-0.00942672,0,-0.00942672,0,-1861.77,302.568,-5.71848,302.568,-2212.59,-1340.79,-5.71848,-1340.79,-1837.72,10,407,592,593,611,2217
6377.1,0.0299768,0.00403253,-0.0186806,-0.00624138,-0.0186806,-0.0046068,-0.0162611,-0.00624138,-0.0162611,0.00269104,1091.89,-2631.37,-892.99,-2631.37,-140.333,-2325.54,-892.99,-2325.54,849.386,10,467,646,651,696,2218
3279.83,0.0156018,0.00419666,-0.00915607,0.00118578,-0.00915607,0.000570229,-0.00967586,0.00118578,-0.00967586,0.00349438,6517.11,-1281.24,172.418,-1281.24,5997.85,-1355.13,172.418,-1355.13,6436.24,10,482,628,654,655,2219
2553.55,0.0120043,0.00231628,-0.00318595,0.00149334,-0.00318595,-0.00177181,-0.00956595,0.00149334,-0.00956595,0.000464481,916.771,-447.696,217.763,-447.696,310.437,-1353.64,217.763,-1353.64,678.976,10,460,482,627,658,2220
9122.59,0.0424309,-0.0257941,0.0268211,0.0114682,0.0268211,0.0137259,-0.00557524,0.0114682,-0.00557524,0.00924877,-8282.14,3648.26,1703.15,3648.26,-2148.22,-749.226,1703.15,-749.226,-3050.15,10,436,614,618,619,2221
2171.32,0.0102732,0.00286277,-0.00252524,0.00313245,-0.00252524,-0.00309047,-0.00672821,0.00313245,-0.00672821,0.00503459,3901.2,-347.542,447.855,-347.542,3035.34,-932.062,447.855,-932.062,4231.19,10,460,481,482,658,2222
2611.34,0.0122501,-0.00247638,-0.00387566,0.00166247,-0.00387566,-0.00232052,-0.00887011,0.00166247,-0.00887011,0.00454708,-719.522,-544.328,239.399,-544.328,-719.288,-1254.62,239.399,-1254.62,298.476,10,482,627,628,655,2223
2774.01,0.0131208,0.00886729,-0.00466444,0.00202112,-0.00466444,-0.0081455,-0.00514575,0.00202112,-0.00514575,0.00400972,4619.59,-637.514,297.222,-637.514,2183.07,-699.053,297.222,-699.053,3942.06,10,474,479,650,651,2224
7017.15,0.0333745,0.00642603,0.0257918,0.00622518,0.0257918,-0.00738733,-0.00662225,0.00622518,-0.00662225,0.0104555,6741.07,3606.13,858.993,3606.13,4716.05,-924.161,858.993,-924.161,7270.13,10,432,597,614,694,2225
333.414,0.00156932,0,0,0.000750981,0,0,-0.000704998,0.000750981,-0.000704998,0.00153567,1155.55,-0.149978,106.531,-0.149978,1155.53,-100.008,106.531,-100.008,1372.59,10,496,582,583,692,2226
3776.06,0.0178442,0.0120797,-0.0100479,0.00224148,-0.0100479,-0.010763,0.000643542,0.00224148,0.000643542,0.00308718,4681.87,-1370.6,318.566,-1370.6,1382.01,112.628,318.566,112.628,3369.08,10,522,523,525,690,2227
7731.86,0.0357615,0.0197335,0.0128766,0.0078029,0.0128766,-0.0024849,0.0157654,0.0078029,0.0157654,-0.0242623,-3928.66,1806.68,1142.47,1806.68,-7173.3,2162.54,1142.47,2162.54,-10465,10,360,361,534,680,2228
1628.59,0.00764825,0,0,0.00656738,0,0,0.000846857,0.00656738,0.000846857,0.000268847,144.766,1.57903,932.456,1.57903,132.724,120.239,932.456,120.239,158.236,10,497,498,516,584,2229
1613.45,0.00757162,0,0,-0.00654676,0,0,0.000356204,-0.00654676,0.000356204,-0.00017422,-188.28,-0.66257,-929.801,-0.66257,-200.422,50.5897,-929.801,50.5897,-237.421,10,355,540,541,572,2230
4285.1,0.0201607,0.00764664,0.00331969,-0.00724112,0.00331969,0.00101094,0.0137613,-0.00724112,0.0137613,-0.00676262,2015.03,457.759,-1038.5,457.759,1139.66,1929.75,-1038.5,1929.75,-81.4135,10,358,360,537,569,2231
764.648,0.00357954,-0.000768747,-0.0023232,0.00146095,-0.0023232,-0.00189335,0.000170086,0.00146095,0.000170086,0.00094914,-1409.65,-329.179,209.111,-329.179,-1584.32,27.9412,209.111,27.9412,-1175.73,10,510,520,687,688,2232
4443.85,0.0211893,-0.000690124,0.0103217,-0.0110914,0.0103217,0.00641334,0.0096896,-0.0110914,0.0096896,0.00429239,6927.81,1413.5,-1572.57,1413.5,7922.79,1363.66,-1572.57,1363.66,7542.75,10,379,558,559,562,2233
794.983,0.00371915,-0.00188626,0.00258703,-0.000699011,0.00258703,-0.00154528,0.000252731,-0.000699011,0.000252731,0.00133372,-1862.84,368.812,-101.389,368.812,-1826.29,38.4401,-101.389,38.4401,-1411.37,10,385,386,545,576,2234
16325.4,0.0722897,0.0202093,-0.0249036,-0.00629327,-0.0249036,-0.0743647,-0.00415713,-0.00629327,-0.00415713,0.0278644,-23489.3,-3141.62,-894.545,-3141.62,-38335.8,-527.32,-894.545,-527.32,-22644.4,10,365,396,555,556,2235
981.335,0.00461434,0.00285097,0.0024559,-0.000890601,0.0024559,-0.00297044,-0.000489428,-0.000890601,-0.000489428,0.00107966,1107.59,344.542,-125.141,344.542,274.305,-67.508,-125.141,-67.508,850.531,10,354,381,385,576,2236
2475.49,0.011523,0,-0.00185403,0,-0.00185403,-0.00492608,-0.00938393,0,-0.00938393,0,-3881.98,-264.175,4.98353,-264.175,-4614.68,-1337.09,4.98353,-1337.09,-3857.74,10,459,460,481,626,2237
2586.45,0.0121618,-0.000571234,0.00714521,0.000943826,0.00714521,-0.00343435,-0.0063122,0.000943826,-0.0063122,0.00515829,624.544,1009.02,123.984,1009.02,180.814,-891.453,123.984,-891.453,1431.04,10,411,416,588,601,2238
2172.86,0.0101686,0,-0.00451181,0,-0.00451181,-0.00176211,-0.00749397,0,-0.00749397,0,-1449.26,-641.497,9.63317,-641.497,-1727.88,-1065.51,9.63317,-1065.51,-1439.06,10,463,475,629,630,2239
3563.13,0.0167803,0.00791468,-0.00778639,-0.00134917,-0.00778639,-0.0124145,-0.00426244,-0.00134917,-0.00426244,0.0067915,2538.01,-1061.25,-177.944,-1061.25,-405.558,-597.2,-177.944,-597.2,2352.21,10,441,442,642,660,2240
7177.28,0.0327304,0.00554654,-0.00117563,0.0236691,-0.00117563,-0.017969,-0.0100411,0.0236691,-0.0100411,-0.00332365,-12476,-119.423,3392.04,-119.423,-16047.5,-1497.79,3392.04,-1497.79,-13451.8,10,532,533,536,681,2241
2219.65,0.0105595,0.00410339,0.00264609,0.000117419,0.00264609,-0.00353843,-0.00666359,0.000117419,-0.00666359,0.00755071,6554.05,367.817,12.0416,367.817,5457.38,-913.802,12.0416,-913.802,7060.91,10,427,593,611,612,2242
2179.27,0.0101921,0,0.00154752,0,0.00154752,-0.00214854,-0.00860087,0,-0.00860087,0,-1746.92,220.086,-3.79461,220.086,-2075.64,-1223.2,-3.79461,-1223.2,-1726.51,10,407,408,428,592,2243
2450.27,0.0116418,0.00352491,0.00339813,-0.00184128,0.00339813,-0.00137684,-0.00865642,-0.00184128,-0.00865642,0.00523449,5895.96,472.881,-265.97,472.881,5179.82,-1204.56,-265.97,-1204.56,6156.94,10,428,592,610,611,2244
2455.93,0.0115544,-0.000320558,-0.000474765,-0.000877731,-0.000474765,-0.00566919,-0.00745836,-0.000877731,-0.00745836,0.0074483,894.054,-71.7568,-122.954,-71.7568,110.575,-1032.77,-122.954,-1032.77,2022.38,10,427,593,594,612,2245
750.282,0.00353756,0,-0.00258047,0,-0.00258047,0.00258825,-0.000702757,0,-0.000702757,0,1938.69,-365.8,0.512819,-365.8,2300.75,-99.6208,0.512819,-99.6208,1936.95,10,510,511,635,687,2246
1830.46,0.00856916,0,-0.00510474,0,-0.00510474,-0.001605,-0.0053062,0,-0.0053062,0,-1292.77,-725.703,7.71468,-725.703,-1544.2,-754.344,7.71468,-754.344,-1292.17,10,464,630,631,643,2247
2698.15,0.0127206,0.00367142,0.000926325,-0.00176095,0.000926325,-0.00549057,-0.00929351,-0.00176095,-0.00929351,0.00458029,2405.66,107.044,-262.793,107.044,1089.42,-1301.76,-262.793,-1301.76,2557.07,10,410,421,426,606,2248
2406.17,0.0113852,0.00216369,-0.000807084,0.000212347,-0.000807084,-0.00591289,-0.00658518,0.000212347,-0.00658518,0.00863947,3835.87,-109.887,33.611,-109.887,2671.79,-899.424,33.611,-899.424,4772.66,10,459,480,481,659,2249
13219.6,0.0599243,0.0237383,-0.018371,0.00603595,-0.018371,-0.0588681,0.012055,0.00603595,0.012055,0.0199046,-12465,-2247.16,767.914,-2247.16,-25071.5,1478.29,767.914,1478.29,-13103.5,10,438,555,556,624,2250
7995.6,0.0369902,0.0124823,-0.0152984,-0.0125937,-0.0152984,-0.00673343,-0.0215208,-0.0125937,-0.0215208,-0.0124333,-5001.2,-2196.67,-1887.65,-2196.67,-7551.82,-3064.16,-1887.65,-3064.16,-8667.6,10,465,466,648,664,2251
7917.98,0.0371498,-0.000410181,-0.0295257,-0.006329,-0.0295257,-0.00499323,-0.00926394,-0.006329,-0.00926394,0.00712481,-435.293,-4194.34,-901.187,-4194.34,-1110.89,-1315.94,-901.187,-1315.94,620.883,10,443,491,660,665,2252
4828.73,0.0220898,0,0,0.00056547,0,0,0.0171264,0.00056547,0.0171264,-0.0147312,-11761,2.82264,81.1339,2.82264,-11675.6,2457.31,81.1339,2457.31,-13993.5,10,359,360,502,537,2253
999.761,0.00469147,0,0,-0.00405845,0,0,0.000121973,-0.00405845,0.000121973,-0.000253877,-213.392,-0.140653,-576.411,-0.140653,-218.068,17.3234,-576.411,17.3234,-258.824,10,354,541,542,576,2254
7609.65,0.0359768,0.0102815,-0.00476356,0.00273727,-0.00476356,0.012688,-0.0259293,0.00273727,-0.0259293,-0.0168061,4519.82,-632.707,430.573,-632.707,4321.23,-3920.19,430.573,-3920.19,1255.67,10,361,503,504,534,2255
3492.4,0.0164962,0.0101319,0.00864704,-0.00454873,0.00864704,-0.00698761,0.00593442,-0.00454873,0.00593442,0.000915255,4197.57,1190.07,-619.415,1190.07,1724.42,855.785,-619.415,855.785,2848.77,10,377,382,572,573,2256
4828.73,0.0220898,0,0,0.00056547,0,0,0.0171264,0.00056547,0.0171264,-0.0147312,-11761,2.82264,81.1339,2.82264,-11675.6,2457.31,81.1339,2457.31,-13993.5,10,359,360,501,502,2257
5734.97,0.0264682,0.00931833,0.00405614,-0.00169734,0.00405614,0.00963776,0.00593177,-0.00169734,0.00593177,-0.0281071,-6445.56,576.457,-279.231,576.457,-6332.85,635.332,-279.231,635.332,-11906.3,10,360,361,503,569,2258
296.561,0.00139524,0,-0.000673275,0,-0.000673275,0.00126675,-0.000686905,0,-0.000686905,0,953.354,-95.5245,0.131067,-95.5245,1132.46,-97.4584,0.131067,-97.4584,953.36,10,495,582,636,692,2259
6786.43,0.0330973,0.000243044,-0.0049067,-0.00767838,-0.0049067,0.0353542,-0.0124207,-0.00767838,-0.0124207,-0.0109798,17250.6,-708.656,-1005.39,-708.656,21897.4,-1919.94,-1005.39,-1919.94,15797.3,10,358,393,538,565,2260
2349.03,0.0110579,0.000172559,0.00131965,-0.00173711,0.00131965,0.0100848,-0.000902334,-0.00173711,-0.000902334,-0.00846235,1230.3,177.984,-255.403,177.984,2623.78,-216.457,-255.403,-216.457,21.7097,10,360,502,503,537,2261
2294.83,0.0107776,0.00588395,-0.0071968,-0.000653549,-0.0071968,-0.00542325,0.00170324,-0.000653549,0.00170324,-7.86269e-05,1000.03,-1007.95,-94.7261,-1007.95,-636.772,245.013,-94.7261,245.013,136.946,10,522,524,525,689,2262
1705.09,0.00788553,-0.010724,0.000405256,9.83157e-05,0.000405256,0.00181108,-0.000743605,9.83157e-05,-0.000743605,2.45558e-06,-8361,52.4002,14.7864,52.4002,-6553.43,-107.323,14.7864,-107.323,-6814.25,10,582,636,687,692,2263
296.561,0.00139524,0,-0.000673275,0,-0.000673275,0.00126675,-0.000686905,0,-0.000686905,0,953.354,-95.5245,0.131067,-95.5245,1132.46,-97.4584,0.131067,-97.4584,953.36,10,495,511,636,692,2264
750.282,0.00353756,0,-0.00258047,0,-0.00258047,0.00258825,-0.000702757,0,-0.000702757,0,1938.69,-365.8,0.512819,-365.8,2300.75,-99.6208,0.512819,-99.6208,1936.95,10,511,635,636,687,2265
989.917,0.00464806,0,0,0.00402317,0,0,0.000117241,0.00402317,0.000117241,0.000105447,58.1794,0.133941,571.263,0.133941,53.5871,16.6474,571.263,16.6474,63.9547,10,496,497,520,583,2266
1666.58,0.00786005,0.00154917,0.00310503,-0.00487532,0.00310503,-0.000337615,0.00341976,-0.00487532,0.00341976,0.00161662,2288.85,436.872,-686.353,436.872,2004.96,487.625,-686.353,487.625,2280.71,10,355,381,541,572,2267
1308.22,0.00614715,0.00318447,-0.00354253,-0.00265553,-0.00354253,-0.00269783,0.000283662,-0.00265553,0.000283662,8.42757e-05,847.116,-492.273,-378.574,-492.273,-9.25573,36.8747,-378.574,36.8747,399.358,10,509,510,521,688,2268
1559.77,0.00733398,0,0.00624242,0,0.00624242,0.000989978,-0.00102269,0,-0.00102269,0,693.301,885.887,-1.81033,885.887,811.269,-145.134,-1.81033,-145.134,682.548,10,374,375,386,545,2269
5240.97,0.0243666,0.00518776,0.0170318,-0.00291662,0.0170318,-0.0156127,0.000614386,-0.00291662,0.000614386,0.00548834,-3639.44,2395.67,-433.134,2395.67,-6762.71,133.174,-433.134,133.174,-3678.6,10,383,384,388,579,2270
1010.71,0.00475913,-1.9291e-07,0.0026574,-0.00280728,0.0026574,0.001632,-0.00111342,-0.00280728,-0.00111342,0.000170859,1336.71,377.387,-397.838,377.387,1561.64,-155.475,-397.838,-155.475,1354.38,10,376,385,544,691,2271
812.281,0.00382518,0,0.00310514,0,0.00310514,0.00185364,-0.000432167,0,-0.000432167,0,1383.27,440.392,-0.37995,440.392,1640.17,-61.2929,-0.37995,-61.2929,1380.59,10,375,385,544,545,2272
98.5931,0.000463084,0,-0.000139418,0,-0.000139418,0.000266625,-0.000343076,0,-0.000343076,0,200.925,-19.7938,0.0135779,-19.7938,238.724,-48.7082,0.0135779,-48.7082,200.953,10,353,376,544,691,2273
1727.08,0.00813009,0,-0.00689482,0,-0.00689482,0.00170655,-0.00103175,0,-0.00103175,0,1221.39,-978.016,2.01489,-978.016,1435.84,-146.351,2.01489,-146.351,1208.23,10,509,510,634,688,2274
2208.26,0.0103362,0.00491504,-0.00606865,-0.00202665,-0.00606865,-0.00653843,0.00248807,-0.00202665,0.00248807,-2.63673e-05,-661.202,-849.961,-292.28,-849.961,-2318.78,355.659,-292.28,355.659,-1377.38,10,521,524,688,689,2275
2313.69,0.0108239,0,-0.00930425,0,-0.00930425,-0.00195302,-0.000163542,0,-0.000163542,0,-1591.23,-1323.08,0.433683,-1323.08,-1918.9,-23.256,0.433683,-23.256,-1615.9,10,508,509,524,633,2276
8588.75,0.0402068,0.00836115,0.02939,0.00182301,0.02939,-0.0204657,0.00429172,0.00182301,0.00429172,0.0128563,-150.414,4148.6,259.492,4148.6,-4411.39,604.284,259.492,604.284,405.98,10,368,380,384,575,2277
2204.45,0.0103193,0,0.0088315,0,0.0088315,-0.00159309,-0.00101245,0,-0.00101245,0,-1308.88,1255.54,-2.5468,1255.54,-1580.49,-143.936,-2.5468,-143.936,-1330.81,10,373,546,547,580,2278
3345.89,0.0156794,0.00850488,0.00958259,0.00163834,0.00958259,-0.00943118,0.00305056,0.00163834,0.00305056,0.000187575,381.978,1335.63,240.608,1335.63,-2222.17,437.619,240.608,437.619,-826.128,10,387,388,578,581,2279
3139.7,0.0146852,0.00514122,-0.00563964,-0.00388122,-0.00563964,-0.0100447,-0.00688349,-0.00388122,-0.00688349,0.00298028,-958.087,-776.007,-535.037,-776.007,-3177.92,-979.421,-535.037,-979.421,-1281.35,10,475,649,650,697,2280
6342.84,0.0285564,-0.0254797,0.0146431,-0.00504748,0.0146431,-0.0063339,-0.0093562,-0.00504748,-0.0093562,0.00812595,-22949,2051.84,-710.471,2051.84,-19708.7,-1420.43,-710.471,-1420.43,-17841.7,10,367,553,554,622,2281
2451.65,0.0115772,0.00649166,-0.00873996,-0.000997743,-0.00873996,-0.00282334,-0.000596312,-0.000997743,-0.000596312,2.31027e-05,3555.95,-1224.85,-140.353,-1224.85,2207.07,-83.7719,-140.353,-83.7719,2626.37,10,524,633,634,689,2282
3904.19,0.0183757,0.00767425,0.00719848,0.00210916,0.00719848,-0.0128958,-0.00766983,0.00210916,-0.00766983,0.00724442,2237.57,967.457,279.614,967.457,-746.177,-1091.77,279.614,-1091.77,2141.14,10,370,550,551,613,2283
5496.08,0.0259639,0.00991761,0.0161684,0.00408712,0.0161684,-0.0133346,-0.00773108,0.00408712,-0.00773108,0.00817075,4209.25,2247.59,568.228,2247.59,837.445,-1098.25,568.228,-1098.25,3915.45,10,369,370,433,613,2284
2194.1,0.0102675,0.00205893,-0.00140358,-0.000257169,-0.00140358,-0.00388156,-0.00824083,-0.000257169,-0.00824083,3.1941e-05,-1187.36,-202.665,-38.1183,-202.665,-2052.08,-1168.81,-38.1183,-1168.81,-1454.35,10,404,406,427,594,2285
2069.05,0.00971416,0,-0.000307977,4.33681e-19,-0.000307977,0.000159984,-0.00840656,4.33681e-19,-0.00840656,0,7.25273,-43.7321,0.73526,-43.7321,9.84615,-1193.72,0.73526,-1193.72,27.2955,10,404,405,406,594,2286
1659.4,0.00787879,0.00560482,0.00228634,-0.00348171,0.00228634,-0.00226226,-0.00354899,-0.00348171,-0.00354899,0.0035196,5886.03,302.836,-498.315,302.836,4758.47,-483.047,-498.315,-483.047,5605.04,10,421,422,589,601,2287
7332.53,0.0346876,0.00428859,-0.0273158,-0.00287457,-0.0273158,-0.00713314,-0.00880436,-0.00287457,-0.00880436,0.00923746,3942.5,-3854.27,-418.79,-3854.27,2374.44,-1238.43,-418.79,-1238.43,4651.23,10,443,444,491,665,2288
3278.7,0.0154051,0.00311648,0.00741491,0.000289708,0.00741491,-0.0103563,-0.00565436,0.000289708,-0.00565436,0.00807277,815.106,1019.19,26.5798,1019.19,-1168.1,-794.583,26.5798,-794.583,1493.11,10,416,595,596,613,2289
2069.05,0.00971416,0,-0.000307977,1.73472e-18,-0.000307977,0.000159984,-0.00840656,1.73472e-18,-0.00840656,0,7.25273,-43.7321,0.73526,-43.7321,9.84615,-1193.72,0.73526,-1193.72,27.2955,10,404,405,457,594,2290
1796.75,0.00841801,0,0.00461927,0,0.00461927,-0.00113604,-0.00560172,0,-0.00560172,0,-936.836,656.48,-7.36399,656.48,-1119.56,-796.104,-7.36399,-796.104,-933.979,10,371,417,549,588,2291
812.281,0.00382518,0,0.00310514,0,0.00310514,0.00185364,-0.000432167,0,-0.000432167,0,1383.27,440.392,-0.37995,440.392,1640.17,-61.2929,-0.37995,-61.2929,1380.59,10,375,376,385,544,2292
4964.18,0.0232422,0.00237289,0.000896205,0.000710941,0.000896205,-0.0152772,-0.0145442,0.000710941,-0.0145442,0.0120757,-942.053,129.53,105.44,129.53,-3487.19,-2039.95,105.44,-2039.95,471.822,10,403,404,427,455,2293
2069.05,0.00971416,0,-0.000307977,-1.73472e-18,-0.000307977,0.000159984,-0.00840656,-1.73472e-18,-0.00840656,0,7.25273,-43.7321,0.73526,-43.7321,9.84615,-1193.72,0.73526,-1193.72,27.2955,10,404,405,457,458,2294
2150.25,0.0101444,3.91008e-05,0.000485697,0.000727901,0.000485697,-0.00662101,-0.00306865,0.000727901,-0.00306865,0.00966004,2203.09,71.8493,101.566,71.8493,1247.4,-391.429,101.566,-391.429,3577.95,10,404,456,457,458,2295
4370.2,0.0202812,-0.00975019,-0.0113566,-0.00389769,-0.0113566,-0.00421552,-0.00923069,-0.00389769,-0.00923069,0.00765939,-6670.57,-1631.24,-559.143,-1631.24,-5878.05,-1323.69,-559.143,-1323.69,-4164.72,10,468,469,487,661,2296
2048.95,0.00967719,0.000374252,-0.00116005,0.00237177,-0.00116005,-0.00372074,-0.00579105,0.00237177,-0.00579105,0.00707942,2756.9,-160.258,339.646,-160.258,2157.98,-798.771,339.646,-798.771,3719.16,10,460,481,626,658,2297
5838.56,0.0274679,0.0154668,-0.0107297,-0.00265792,-0.0107297,-0.0113204,-0.0161057,-0.00265792,-0.0161057,-0.00175723,3039.88,-1564.98,-418.002,-1564.98,-660.005,-2281.27,-418.002,-2281.27,608.839,10,465,466,471,653,2298
2421.4,0.0113456,-0.000545537,-0.0061432,-0.00106135,-0.0061432,-0.00374422,-0.00672578,-0.00106135,-0.00672578,0.0033003,-969.55,-870.406,-142.195,-870.406,-1454.61,-954.378,-142.195,-954.378,-424.233,10,464,475,630,644,2299
2812.32,0.0131426,2.08986e-07,-0.00885275,-0.00301537,-0.00885275,-0.00744874,-0.00177506,-0.00301537,-0.00177506,0.0049465,-2074.33,-1252.65,-429.442,-1252.65,-3184.5,-260.095,-429.442,-260.095,-1396.05,10,441,507,525,632,2300
2554.37,0.0118865,-5.68568e-08,-0.00971182,0.000502386,-0.00971182,-0.00502514,0.00175926,0.000502386,0.00175926,-7.12487e-05,-3995.17,-1383.81,72.3343,-1383.81,-4768.17,254.943,72.3343,254.943,-4033.58,10,508,524,525,633,2301
2126,0.00998329,0.00145948,0.00599571,-0.00386773,0.00599571,-0.00280766,-0.0041873,-0.00386773,-0.0041873,0.0016212,309.12,844.795,-559.739,844.795,-332.537,-582.732,-559.739,-582.732,322.056,10,411,416,417,588,2302
1776.9,0.0083489,0.00588237,-0.0035367,0.000228384,-0.0035367,-0.00529889,-0.00290412,0.000228384,-0.00290412,-1.13122e-06,1198.26,-488.421,37.4439,-488.421,-406.946,-409.693,37.4439,-409.693,357.702,10,441,631,632,642,2303
2266.22,0.0106672,0.00392736,0.00858848,0.000577304,0.00858848,-0.00221076,-0.00126089,0.000577304,-0.00126089,1.33427e-05,1742.14,1210.14,79.2081,1210.14,837.072,-178.109,79.2081,-178.109,1170.74,10,373,374,387,580,2304
7217.02,0.0334483,0.0124823,-0.0121297,-0.00881727,-0.0121297,-0.00446698,-0.020835,-0.00881727,-0.020835,-0.0140177,-4185.44,-1764.59,-1351.46,-1764.59,-6409.23,-2947.98,-1351.46,-2947.98,-8033.05,10,465,466,648,653,2305
11559.2,0.0534861,0.0286556,0.00548074,0.00200144,0.00548074,-0.0516956,0.0138118,0.00200144,0.0138118,0.0188121,-2652.76,709.52,325.855,709.52,-14348,1699.57,325.855,1699.57,-3968.58,10,397,398,450,624,2306
1364.66,0.00643297,0,0,0.00534648,0,0,0.000601862,0.00534648,0.000601862,0.00250412,1846.92,0.910157,757.966,0.910157,1838.94,85.3254,757.966,85.3254,2184.79,10,497,583,584,683,2307
2023.47,0.00939586,0,-0.00660131,0,-0.00660131,-0.00645565,-0.00295679,0,-0.00295679,0,-4974.19,-941.522,5.60465,-941.522,-5928.57,-421.717,5.60465,-421.717,-4984.19,10,440,441,507,631,2308
1909.86,0.00899794,0.00492581,-0.00384046,0.00106572,-0.00384046,-0.00503562,-0.00425743,0.00106572,-0.00425743,0.00233512,2288.1,-529.711,159.881,-529.711,849.57,-592.739,159.881,-592.739,1919.62,10,464,470,643,644,2309
1679.77,0.00786414,0.00500456,0.00115054,0.00159885,0.00115054,-0.00660353,-0.00293247,0.00159885,-0.00293247,7.65194e-06,-560.794,147.775,223.96,147.775,-2222.05,-416.935,223.96,-416.935,-1271.76,10,370,371,372,550,2310
1830.46,0.00856916,0,-0.00510474,0,-0.00510474,-0.001605,-0.0053062,0,-0.0053062,0,-1292.77,-725.703,7.71468,-725.703,-1544.2,-754.344,7.71468,-754.344,-1292.17,10,440,464,631,643,2311
16306.4,0.0728963,0.0202093,-0.0257372,-0.00156571,-0.0257372,-0.0715628,-0.012359,-0.00156571,-0.012359,0.0307753,-19229.3,-3231.3,-151.583,-3231.3,-33532,-1828.08,-151.583,-1828.08,-17951.2,10,365,438,555,556,2312
2512.89,0.0117673,0.00348756,0.00133014,-0.00164078,0.00133014,-0.00928543,-0.00636594,-0.00164078,-0.00636594,0.00446554,-675.58,175.902,-240.596,175.902,-2523.51,-876,-240.596,-876,-511.028,10,428,607,608,610,2313
1796.75,0.00841801,0,0.00461927,0,0.00461927,-0.00113604,-0.00560172,0,-0.00560172,0,-936.836,656.48,-7.36399,656.48,-1119.56,-796.104,-7.36399,-796.104,-933.979,10,371,411,417,588,2314
2069.05,0.00971416,0,-0.000307977,0,-0.000307977,0.000159984,-0.00840656,0,-0.00840656,0,7.25273,-43.7321,0.73526,-43.7321,9.84615,-1193.72,0.73526,-1193.72,27.2955,10,404,405,458,625,2315
12497.3,0.0564327,0.00763929,0.00993113,0.0311658,0.00993113,-0.0454168,0.0112953,0.0311658,0.0112953,0.0193437,-16659.3,1060.09,4653.54,1060.09,-24619.6,1584.25,4653.54,1584.25,-14913.1,10,446,533,638,682,2316
9567.34,0.0451674,-0.00163802,0.0372687,0.00739536,0.0372687,-0.002669,-0.00553228,0.00739536,-0.00553228,0.0107561,1587.62,5236.18,1122.04,5236.18,2545.11,-705.624,1122.04,-705.624,3889.29,10,367,436,439,622,2317
6627.95,0.0306419,0.00966036,0.0101812,-0.0143172,0.0101812,0.000830687,-0.0138364,-0.0143172,-0.0138364,-0.0182884,-5545.06,1525.12,-2015.59,1525.12,-6847.52,-1855.41,-2015.59,-1855.41,-9824.51,10,452,465,483,664,2318
12393.8,0.0583346,0.0204664,-0.0284522,-0.0022053,-0.0284522,-0.0451866,-0.0042268,-0.0022053,-0.0042268,0.0315382,4128.52,-3610.69,-305.969,-3610.69,-5827.21,-672.162,-305.969,-672.162,5357.23,10,365,366,438,555,2319
11565.3,0.0542027,0.0145581,0.0240026,0.000587001,0.0240026,-0.0438196,-0.00507717,0.000587001,-0.00507717,0.0327784,1365.18,3016.25,61.0104,3016.25,-7527.64,-778.221,61.0104,-778.221,3650.98,10,446,637,638,670,2320
2337.83,0.0109085,0,-0.00105303,0,-0.00105303,-0.00350001,-0.00916815,0,-0.00916815,0,-2787.16,-149.898,2.75871,-149.898,-3311.87,-1305.08,2.75871,-1305.08,-2763.46,10,458,459,625,659,2321
6218.34,0.0293546,0.0049298,-0.0020953,-0.0188164,-0.0020953,0.0157073,0.00522665,-0.0188164,0.00522665,-0.0160329,3098.85,-477.657,-2688.92,-477.657,4663.32,424.022,-2688.92,424.022,150.482,10,394,566,569,570,2322
1559.77,0.00733398,0,0.00624242,0,0.00624242,0.000989978,-0.00102269,0,-0.00102269,0,693.301,885.887,-1.81033,885.887,811.269,-145.134,-1.81033,-145.134,682.548,10,374,386,545,546,2323
263.11,0.0867411,0.0488969,-0.0148008,0.0267981,-0.0148008,-0.0730146,-0.0206546,0.0267981,-0.0206546,0.0290605,-563.136,-18.6164,56.8334,-18.6164,-816.06,-28.7762,56.8334,-28.7762,-599.96,10,15,18,662,663,2324
235.957,0.0813453,0.0652855,-0.0195436,0.0191852,-0.0195436,-0.0548097,-0.0231688,0.0191852,-0.0231688,0.0197567,2122.5,-21.2218,41.9251,-21.2218,1882.5,-39.9519,41.9251,-39.9519,2035.12,10,15,16,662,666,2325
384.276,0.117079,0.0680355,-0.0274008,0.0169219,-0.0274008,-0.113635,-0.0228149,0.0169219,-0.0228149,0.014827,-5202.65,-35.078,42.6112,-35.078,-5614.19,-34.2138,42.6112,-34.2138,-5319.04,10,15,20,666,667,2326
240.461,0.0767808,0.0258092,-0.00464528,0.0270757,-0.00464528,-0.0713649,-0.0202165,0.0270757,-0.0202165,0.0291084,-2506.11,2.96156,58.26,2.96156,-2712.66,-28.1234,58.26,-28.1234,-2494.31,10,14,15,18,663,2327
206.494,0.0709828,0.0494357,0.0126262,-0.0361162,0.0126262,-0.0411921,-0.0141821,-0.0361162,-0.0141821,0.01761,1920.54,13.1226,-72.3809,13.1226,1740.77,-20.3974,-72.3809,-20.3974,1861.01,10,150,151,153,431,2328
258.51,0.0870825,0.0723221,0.019667,-0.0228347,0.019667,-0.0615535,-0.0172622,-0.0228347,-0.0172622,0.00678994,764.58,17.8533,-49.6823,17.8533,491.177,-28.0548,-49.6823,-28.0548,634.429,10,150,151,155,436,2329
384.156,0.121566,0.0697686,0.0261405,-0.0159543,0.0261405,-0.111928,-0.028871,-0.0159543,-0.028871,0.0352801,-2953.15,28.1796,-39.9932,28.1796,-3350.23,-43.7694,-39.9932,-43.7694,-3023.65,10,151,430,431,436,2330
393.523,0.117013,0.0413401,0.010017,-0.0157043,0.010017,-0.125347,-0.027089,-0.0157043,-0.027089,0.0400112,-6711.28,-8.88955,-39.5004,-8.88955,-7090.2,-42.9345,-39.5004,-42.9345,-6709.09,10,151,152,430,435,2331
174.676,0.0589309,0.0417194,-0.0281846,0.00639757,-0.0281846,-0.0399453,0.00835086,0.00639757,0.00835086,0.0107343,798.652,-49.361,12.0017,-49.361,629.594,18.0752,12.0017,18.0752,732.948,10,100,673,674,686,2332
64.3316,0.0217653,0.0155556,-0.0101331,0.0111665,-0.0101331,-0.00291286,0.00371178,0.0111665,0.00371178,-0.00298622,914.746,-19.5125,21.6923,-19.5125,877.327,7.6698,21.6923,7.6698,877.113,10,104,105,671,672,2333
102.168,0.0337605,0.0155223,-0.0172754,0.0154238,-0.0172754,-0.0127529,0.00995578,0.0154238,0.00995578,-0.00626482,-486.158,-34.117,30.6292,-34.117,-544.774,20.6889,30.6292,20.6889,-531.925,10,104,675,676,679,2334
34.4678,0.0114337,-0.000569802,-0.00215738,0.00808114,-0.00215738,-0.00302716,0.00491667,0.00808114,0.00491667,0.000887253,-289.026,-4.25182,16.244,-4.25182,-294.232,9.94191,16.244,9.94191,-286.595,10,84,585,671,675,2335
34.7845,0.0115401,0,0,0.00916985,0,0,0.003671,0.00916985,0.003671,-0.00263691,-280.958,0.135289,18.3745,0.135289,-281.242,7.35591,18.3745,7.35591,-286.987,10,84,85,586,675,2336
27.7857,0.00936632,0.00649586,-0.00689423,0.00136032,-0.00689423,-0.00157898,0.000174093,0.00136032,0.000174093,0.00195656,678.886,-13.5903,2.71862,-13.5903,662.787,0.365746,2.71862,0.365746,669.842,10,106,107,683,687,2337
98.2829,0.0325871,0.0168481,0.0158203,-0.0139431,0.0158203,-0.0131338,0.0104857,-0.0139431,0.0104857,-0.00529937,-282.166,30.9621,-27.5808,30.9621,-343.837,21.6813,-27.5808,21.6813,-328.452,10,128,389,390,393,2338
66.6229,0.0225148,0.015692,0.0107592,-0.0103256,0.0107592,-0.00389869,0.00606635,-0.0103256,0.00606635,-0.00277378,847.15,20.6399,-20.0277,20.6399,807.377,12.3524,-20.0277,12.3524,809.57,10,128,377,378,389,2339
34.1827,0.0113348,-0.000594964,0.00249921,-0.00795335,0.00249921,-0.00325986,0.00473187,-0.00795335,0.00473187,0.000913642,-311.708,4.94169,-15.9909,4.94169,-317.341,9.58415,-15.9909,9.58415,-309.168,10,109,356,377,389,2340
35.2854,0.0117089,0,0,-0.00935232,0,0,0.00364375,-0.00935232,0.00364375,-0.00249821,-267.774,-0.136926,-18.7384,-0.136926,-268.072,7.30066,-18.7384,7.30066,-273.549,10,108,109,357,389,2341
103.651,0.0354364,0.0314722,0.0162606,-0.00660338,0.0162606,-0.0158868,0.00775073,-0.00660338,0.00775073,0.00154764,1566.64,28.9757,-12.1207,28.9757,1470.95,15.8621,-12.1207,15.8621,1506.09,10,118,119,378,379,2342
65.9134,0.0211364,0.000303629,-0.00225361,0.0108488,-0.00225361,-0.0188971,0.0104878,0.0108488,0.0104878,-0.00378571,-2300.06,-4.68719,22.5546,-4.68719,-2340.31,21.7217,22.5546,21.7217,-2309.13,10,85,586,675,679,2343
53.0898,0.0172814,0.00750311,-0.00274748,0.00112241,-0.00274748,-0.0179344,0.00722314,0.00112241,0.00722314,-0.00328994,-1394.88,-5.01229,2.055,-5.01229,-1447.32,14.7452,2.055,14.7452,-1417.05,10,85,103,104,679,2344
209.255,0.0676613,0.0362317,-0.0293563,0.0104508,-0.0293563,-0.0511481,0.0225947,0.0104508,0.0225947,0.00392571,-1735.31,-57.3679,20.5601,-57.3679,-1919.3,47.3575,20.5601,47.3575,-1804.33,10,95,676,677,680,2345
139.691,0.0435498,0.014788,-0.00826159,0.0090555,-0.00826159,-0.0395489,0.0231078,0.0090555,0.0231078,-0.0118653,-3944.08,-16.0563,18.5096,-16.0563,-4060.41,50.2096,18.5096,50.2096,-4002.92,10,103,360,679,680,2346
87.4202,0.0302296,0.02849,0.0178327,-0.00437466,0.0178327,0.000709272,0.00426037,-0.00437466,0.00426037,-0.00568336,2233.61,35.3235,-9.49745,35.3235,2182.71,7.58983,-9.49745,7.58983,2169.27,10,85,103,587,679,2347
98.7313,0.0336168,0.0294655,-0.0144012,0.00658782,-0.0144012,-0.0193698,-0.000634602,0.00658782,-0.000634602,0.00437622,1319.74,-25.6857,12.9493,-25.6857,1221.34,-0.46666,12.9493,-0.46666,1269.11,10,49,685,686,690,2348
166.048,0.0554312,0.0263192,-0.0337583,0.0157208,-0.0337583,-0.00732338,0.0214254,0.0157208,0.0214254,-0.0134605,136.28,-67.3189,32.7099,-67.3189,72.2561,42.3913,32.7099,42.3913,56.2962,10,104,676,679,680,2349
68.8337,0.0229936,0.00956592,-0.0133996,0.0118453,-0.0133996,-0.00469412,0.00408633,0.0118453,0.00408633,-0.00279875,146.136,-26.3762,23.4476,-26.3762,116.43,8.55381,23.4476,8.55381,120.315,10,105,671,672,684,2350
205.376,0.066088,0.0366633,0.0259782,-0.00939535,0.0259782,-0.0531882,0.0213706,-0.00939535,0.0213706,0.00235121,-2020.23,50.6473,-18.5418,50.6473,-2209.7,44.9632,-18.5418,44.9632,-2093.41,10,119,390,391,394,2351
163.096,0.0546437,0.0284136,0.0323423,-0.0143342,0.0323423,-0.00771391,0.0218634,-0.0143342,0.0218634,-0.0131221,356.185,64.2672,-29.9613,64.2672,287.455,43.0852,-29.9613,43.0852,272.785,10,128,390,393,394,2352
72.4307,0.0241178,0.0105829,0.0134764,-0.0115958,0.0134764,-0.00753901,0.0056406,-0.0115958,0.0056406,-0.00281074,-42.1537,26.5462,-23.0393,26.5462,-79.4926,11.6747,-23.0393,11.6747,-70.0502,10,127,377,378,382,2353
40.2676,0.0135441,0.00992179,-0.00778966,0.00343584,-0.00778966,-0.00221603,0.00409932,0.00343584,0.00409932,-0.00201127,555.385,-15.2674,6.77766,-15.2674,530.952,8.17417,6.77766,8.17417,531.497,10,84,104,671,675,2354
412.599,0.115415,0.0371634,0.000260445,0.00817971,0.000260445,-0.13422,0.032868,0.00817971,0.032868,0.0185534,-10353.6,14.262,16.8225,14.262,-10763.6,73.3967,16.8225,73.3967,-10395.7,10,98,677,678,681,2355
74.3247,0.0254623,0.0270486,-0.00919293,0.00283591,-0.00919293,-0.0113574,0.00355778,0.00283591,0.00355778,0.00177569,1678.46,-16.8092,5.44618,-16.8092,1602.77,7.07868,5.44618,7.07868,1628.74,10,96,97,684,685,2356
35.56,0.0121018,0.0120752,0.00756071,-0.00242868,0.00756071,-0.00042735,-0.000401192,-0.00242868,-0.000401192,0.00106836,1256.14,14.7247,-4.71473,14.7247,1231.42,-0.727666,-4.71473,-0.727666,1234.43,10,126,381,385,386,2357
232.898,0.073373,0.0331222,0.0215199,-0.00632429,0.0215199,-0.0712017,0.0216027,-0.00632429,0.0216027,0.013227,-3282.87,31.1834,-10.5422,31.1834,-3512.2,48.7846,-10.5422,48.7846,-3331.14,10,122,123,391,392,2358
438.831,0.124433,0.0458923,-0.00217726,-0.00265787,-0.00217726,-0.141369,0.0300359,-0.00265787,0.0300359,0.0283942,-9526.95,-16.9119,-4.08262,-16.9119,-9966.49,69.843,-4.08262,69.843,-9567.46,10,123,392,395,396,2359
26.4504,0.0088724,0.00477098,-0.00575014,0.00333925,-0.00575014,-0.00213535,-0.00170275,0.00333925,-0.00170275,0.00125836,382.92,-11.3897,6.63978,-11.3897,369.033,-3.34331,6.63978,-3.34331,375.83,10,107,583,683,687,2360
265.919,0.083996,0.029772,0.00236963,-0.0270112,0.00236963,-0.0802984,-0.0228494,-0.0270112,-0.0228494,0.0296545,-3142.5,-9.65984,-58.6103,-9.65984,-3377.76,-30.9631,-58.6103,-30.9631,-3134.67,10,152,153,154,430,2361
330.622,0.0984907,0.0372883,0.00303246,-0.0127123,0.00303246,-0.113441,-0.00646417,-0.0127123,-0.00646417,0.026335,-6605.33,-1.24361,-28.6521,-1.24361,-6941.2,-30.4086,-28.6521,-30.4086,-6633.75,10,119,123,391,395,2362
381.445,0.121416,0.0843647,0.0300655,0.00450121,0.0300655,-0.111999,-0.00456869,0.00450121,-0.00456869,0.0237998,-2572.27,30.8686,7.61279,30.8686,-2997.9,-12.3412,7.61279,-12.3412,-2706.73,10,124,367,380,392,2363
366.28,0.113501,0.0812233,-0.0262409,-0.00816024,-0.0262409,-0.10659,-0.00338712,-0.00816024,-0.00338712,0.00249287,-4167.77,-26.8881,-15.0459,-26.8881,-4583.92,-11.8407,-15.0459,-11.8407,-4344.2,10,99,102,674,678,2364
305.276,0.0945087,0.0415176,-0.0238952,-0.00351407,-0.0238952,-0.0725342,0.0525653,-0.00351407,0.0525653,0.00185742,-4311.06,-51.7468,-6.77048,-51.7468,-4553.4,115.332,-6.77048,115.332,-4399.5,10,94,361,362,681,2365
289.615,0.0951404,0.0544734,0.010042,-0.0272176,0.010042,-0.0816805,-0.0245683,-0.0272176,-0.0245683,0.0325179,-765.221,7.06305,-57.8115,7.06305,-1047.59,-33.7233,-57.8115,-33.7233,-803.979,10,151,153,430,431,2366
210.296,0.0618479,0.0110754,0.00292449,-0.000935147,0.00292449,-0.0741847,0.0280519,-0.000935147,0.0280519,-0.00388421,-7420.56,14.543,-4.80824,14.543,-7612.56,62.8416,-4.80824,62.8416,-7453.13,10,94,95,680,681,2367
845.104,0.185738,0.0447175,0.0164105,-0.00335396,0.0164105,-0.237603,0.0124313,-0.00335396,0.0124313,0.0321583,-24869.3,51.5521,-9.56315,51.5521,-25726.1,26.719,-9.56315,26.719,-24906.3,10,90,362,363,682,2368
497.084,0.134405,0.0403693,0.0131121,-0.00607003,0.0131121,-0.157775,0.03082,-0.00607003,0.03082,0.0291808,-12375.7,27.4259,-13.9175,27.4259,-12866.5,73.2993,-13.9175,73.2993,-12403.2,10,123,362,395,396,2369
300.721,0.0929804,0.0410756,0.0229481,0.00325943,0.0229481,-0.0727788,0.0510647,0.00325943,0.0510647,0.00133584,-4387.14,50.2702,5.85874,50.2702,-4628.97,112.348,5.85874,112.348,-4476.1,10,120,361,362,395,2370
636.804,0.149498,0.0241331,-0.0355305,0.00921201,-0.0355305,-0.181927,0.049913,0.00921201,0.049913,0.00432325,-20917.2,-131.29,32.4116,-131.29,-21481.3,133.779,32.4116,133.779,-20957.9,10,89,120,361,362,2371
208.208,0.061035,0.00985318,-0.0049931,-5.10326e-05,-0.0049931,-0.0751128,0.026196,-5.10326e-05,0.026196,-0.00375162,-7617.12,-18.8126,2.26518,-18.8126,-7808.41,59.0546,2.26518,59.0546,-7646.69,10,119,120,394,395,2372
427.87,0.115506,0.0397842,0.0120224,0.000668118,0.0120224,-0.144514,0.0143283,0.000668118,0.0143283,0.0067396,-12465.5,26.9632,2.84494,26.9632,-12923.4,21.7931,2.84494,21.7931,-12545.4,10,120,123,362,395,2373
429.025,0.116109,0.0404631,-0.0135215,-0.00149468,-0.0135215,-0.144055,0.0159232,-0.00149468,0.0159232,0.00721073,-12314.2,-29.8147,-5.26231,-29.8147,-12772.1,25.1611,-5.26231,25.1611,-12394.1,10,94,98,362,681,2374
288.98,0.0839492,0.0304159,-0.00369622,0.00547742,-0.00369622,-0.0964944,0.0300679,0.00547742,0.0300679,-0.00247963,-8111.25,-4.26737,11.1476,-4.26737,-8404.34,67.0325,11.1476,67.0325,-8185.84,10,94,361,680,681,2375
585.935,0.14585,0.0357791,0.00605181,0.00661503,0.00605181,-0.187043,0.00731674,0.00661503,0.00731674,0.0254801,-17345.1,33.7513,18.2433,33.7513,-17939.8,-2.02226,18.2433,-2.02226,-17371,10,90,98,362,682,2376
274.005,0.077588,0.0100904,-0.0172952,0.0162654,-0.0172952,-0.0817546,0.04084,0.0162654,0.04084,-0.0129551,-9683.44,-47.539,40.4962,-47.539,-9897.46,91.9771,40.4962,91.9771,-9730.07,10,88,129,360,361,2377
849.681,0.185784,0.0422139,-0.0219015,-0.00758397,-0.0219015,-0.237603,0.0124313,-0.00758397,0.0124313,0.0321583,-25201.5,-115.207,-22.5246,-115.207,-26034.3,28.4396,-22.5246,28.4396,-25220.4,10,90,123,362,363,2378
285.739,0.0826706,0.0281705,0.00182884,-0.0066528,0.00182884,-0.0971082,0.0284437,-0.0066528,0.0284437,-0.00227507,-8358.25,0.498643,-14.1844,0.498643,-8648.35,63.7469,-14.1844,63.7469,-8427.57,10,120,361,394,395,2379
597.087,0.160382,0.0803008,0.0219352,-0.00424524,0.0219352,-0.17973,-0.0147139,-0.00424524,-0.0147139,0.0211149,-12678.2,-1.98692,-16.2288,-1.98692,-13332.7,-31.2028,-16.2288,-31.2028,-12828,10,115,366,367,392,2380
104.611,0.0357033,0.0313366,0.0162086,-0.0051251,0.0162086,-0.0202753,-0.00101651,-0.0051251,-0.00101651,0.00505816,1463.92,28.9917,-10.0836,28.9917,1359.92,-1.24368,-10.0836,-1.24368,1410.92,10,27,383,384,388,2381
138.785,0.043341,0.0149214,0.00746584,-0.00896149,0.00746584,-0.0389703,0.0233805,-0.00896149,0.0233805,-0.0116153,-3843.1,14.632,-18.5156,14.632,-3957.78,50.7488,-18.5156,50.7488,-3901.6,10,129,360,393,394,2382
226.727,0.0689035,0.0280636,0.00282572,-0.00625986,0.00282572,-0.0822991,0.00835478,-0.00625986,0.00835478,0.00747205,-5434.13,3.99303,-13.2616,3.99303,-5677.41,12.9761,-13.2616,12.9761,-5478.73,10,120,129,361,394,2383
241.828,0.0818279,0.0699416,-0.0179077,0.0207401,-0.0179077,-0.055414,-0.018432,0.0207401,-0.018432,0.00437977,1024.86,-17.3395,45.4587,-17.3395,770.594,-31.0238,45.4587,-31.0238,896.164,10,1,16,20,666,2384
80.6916,0.0278555,0.0273259,-0.0157934,-0.00281836,-0.0157934,-0.00758919,0.00139996,-0.00281836,0.00139996,0.0025515,2133.02,-29.3515,-5.39042,-29.3515,2063.53,2.42948,-5.39042,2.42948,2084.1,10,96,105,672,684,2385
635.381,0.14925,0.0242743,0.0348606,-0.00810773,0.0348606,-0.181927,0.049913,-0.00810773,0.049913,0.00432325,-20881.9,129.936,-29.4442,129.936,-21446.1,133.677,-29.4442,133.677,-20923,10,89,94,361,362,2386
161.02,0.0533852,0.0340521,0.0264397,-0.00344556,0.0264397,-0.0399893,0.00474633,-0.00344556,0.00474633,0.00705524,-253.176,51.8621,-6.24857,51.8621,-404.269,8.06207,-6.24857,8.06207,-308.123,10,119,128,390,394,2387
412.325,0.115298,0.0372158,-0.000918249,-0.0119532,-0.000918249,-0.134493,0.0308912,-0.0119532,0.0308912,0.0184704,-10373.9,-16.5261,-25.6818,-16.5261,-10784.2,70.3523,-25.6818,70.3523,-10417.5,10,123,391,392,395,2388
161.606,0.0510247,0.0307218,0.0137598,-0.00183326,0.0137598,-0.0379199,0.0219383,-0.00183326,0.0219383,-0.0209837,-3158.82,27.7101,-4.38731,27.7101,-3303.62,46.6905,-4.38731,46.6905,-3269.8,10,129,360,361,394,2389
115.063,0.0361669,0.00878342,0.00332269,-0.00740365,0.00332269,-0.0296373,0.0233539,-0.00740365,0.0233539,-0.0119148,-3469.91,5.18218,-14.6145,5.18218,-3550.83,50.2608,-14.6145,50.2608,-3515.77,10,128,129,393,394,2390
205.954,0.0701256,0.0388381,0.0235456,-0.0349661,0.0235456,-0.0413298,-0.0108282,-0.0349661,-0.0108282,0.0224523,1335.86,38.4064,-70.5071,38.4064,1172.55,-15.0911,-70.5071,-15.0911,1303.12,10,147,150,415,431,2391
180.342,0.0651802,0.0725648,0.00757664,-0.0250191,0.00757664,-0.0207539,-0.0125935,-0.0250191,-0.0125935,0.0035029,4939.38,6.44598,-49.5054,6.44598,4766.88,-20.9409,-49.5054,-20.9409,4815.54,10,25,63,150,432,2392
252.364,0.0867734,0.0690746,0.020425,-0.0212696,0.020425,-0.0611096,-0.0207809,-0.0212696,-0.0207809,0.0220505,1973.49,19.6602,-46.2222,19.6602,1712.86,-34.6401,-46.2222,-34.6401,1882.81,10,150,151,431,436,2393
214.819,0.0754616,0.0737879,0.0189392,-0.020288,0.0189392,-0.043053,-0.00867208,-0.020288,-0.00867208,0.00927044,3252.3,24.4731,-42.0903,24.4731,3026.34,-14.8793,-42.0903,-14.8793,3130.58,10,25,150,432,437,2394
505.241,0.133969,0.0501868,0.00613376,-0.0172303,0.00613376,-0.162624,-0.0144382,-0.0172303,-0.0144382,0.0129691,-13519.4,-38.7179,-45.4834,-38.7179,-14051.8,-12.2058,-45.4834,-12.2058,-13607.9,10,151,152,155,439,2395
291.932,0.0931579,0.0188023,0.00248493,0.00273324,0.00248493,-0.0859034,-0.0338002,0.00273324,-0.0338002,0.0549686,-2560.54,6.10115,5.28395,6.10115,-2786.97,-51.4141,5.28395,-51.4141,-2477.17,10,8,400,401,648,2396
376.998,0.113938,0.0301252,0.0104206,-0.00345881,0.0104206,-0.116937,-0.0353354,-0.00345881,-0.0353354,0.0508344,-5768.49,15.1908,-10.2487,15.1908,-6103.02,-53.2767,-10.2487,-53.2767,-5715.13,10,154,400,412,429,2397
295.938,0.0915976,0.000337754,-0.00527388,-0.00882969,-0.00527388,-0.0859026,-0.0338,-0.00882969,-0.0338,0.0549677,-4412.37,-14.5798,-17.6582,-14.5798,-4605.37,-52.7733,-17.6582,-52.7733,-4285.9,10,8,149,400,401,2398
251.558,0.0817313,0.00969563,0.000248354,0.00849532,0.000248354,-0.0737214,-0.0208279,0.00849532,-0.0208279,0.0590535,-1509.12,3.79775,17.722,3.79775,-1684.97,-22.1947,17.722,-22.1947,-1403.07,10,7,8,17,648,2399
191.674,0.0648897,0.0141267,0.00105236,0.0059268,0.00105236,-0.0506308,-0.020453,0.0059268,-0.020453,0.0522121,944.607,2.77841,11.4867,2.77841,813.913,-30.9771,11.4867,-30.9771,1022.89,10,162,401,402,653,2400
121.655,0.0414807,0.00593582,0.000544171,-0.00184272,0.000544171,-0.0278674,-0.0140421,-0.00184272,-0.0140421,0.0381448,1355.69,1.10011,-3.4419,1.10011,1288.21,-23.8624,-3.4419,-23.8624,1420.12,10,161,402,403,423,2401
177.796,0.0610569,0.00876522,-0.000777101,-0.00148989,-0.000777101,-0.0438281,-0.0130752,-0.00148989,-0.0130752,0.0585736,1782.73,-1.99954,-2.28633,-1.99954,1678.9,-16.9086,-2.28633,-16.9086,1881.28,10,162,402,418,423,2402
169.473,0.057313,0.00149971,0.00116988,-0.00872223,0.00116988,-0.0408627,-0.0134517,-0.00872223,-0.0134517,0.0529107,857.761,0.949911,-17.164,0.949911,772.55,-19.2992,-17.164,-19.2992,961.004,10,162,169,418,423,2403
218.716,0.0776103,0.01528,-0.00335288,-0.000190232,-0.00335288,-0.0513098,-0.00273399,-0.000190232,-0.00273399,0.0828346,3739.96,-6.80242,0.0384023,-6.80242,3615.34,11.096,0.0384023,11.096,3866.55,10,8,162,401,653,2404
597.662,0.1557,0.0449624,0.0101479,-0.00290733,0.0101479,-0.185086,-0.022696,-0.00290733,-0.022696,0.0438419,-14595.2,8.28941,-9.58959,8.28941,-15190.5,-26.0279,-9.58959,-26.0279,-14594.6,10,152,399,429,434,2405
105.999,0.0374047,0.0461113,-0.00505045,0.00857201,-0.00505045,-0.014117,0.000479804,0.00857201,0.000479804,0.0046059,3472.84,-6.53638,15.968,-6.53638,3358.16,1.60335,15.968,1.60335,3393.8,10,49,100,685,686,2406
362.062,0.109971,0.0423779,0.0229558,-0.0094333,0.0229558,-0.113514,-0.0254564,-0.0094333,-0.0254564,0.0364871,-5444.81,46.5788,-24.7825,46.5788,-5794.7,-29.2909,-24.7825,-29.2909,-5451.38,10,152,154,399,429,2407
71.8173,0.0248969,0.0206387,0.00560197,-0.0162744,0.00560197,-0.00327679,-0.00499943,-0.0162744,-0.00499943,0.00726187,2370.04,9.98911,-31.567,9.98911,2323.66,-9.13963,-31.567,-9.13963,2344.68,10,189,411,416,417,2408
511.146,0.145739,0.0142735,-0.00235879,0.0385239,-0.00235879,-0.131353,-0.065981,0.0385239,-0.065981,0.0612714,-9273.93,0.526926,95.9364,0.526926,-9630.46,-135.471,95.9364,-135.471,-9163.64,10,7,17,399,664,2409
203.669,0.0710825,0.0357172,0.0114861,-0.024807,0.0114861,-0.0451061,-0.0243991,-0.024807,-0.0243991,0.0447164,2794.26,15.4577,-49.0189,15.4577,2635.47,-37.9774,-49.0189,-37.9774,2816.44,10,148,413,414,419,2410
170.116,0.0588765,0.035203,0.0189901,-0.0171101,0.0189901,-0.0326198,-0.024585,-0.0171101,-0.024585,0.0252942,2297.43,31.3581,-35.1781,31.3581,2162.97,-45.2676,-35.1781,-45.2676,2280.89,10,147,414,415,431,2411
151.933,0.0520196,0.0280153,-0.0173976,0.0175929,-0.0173976,-0.0297905,-0.0201984,0.0175929,-0.0201984,0.0219589,1644.28,-29.5,36.0775,-29.5,1527.97,-36.8446,36.0775,-36.8446,1634.6,10,11,645,646,662,2412
168.704,0.0584662,0.0563895,0.0186287,-0.00570389,0.0186287,-0.0354018,0.0086566,-0.00570389,0.0086566,0.00758863,2420.48,27.4314,-9.85809,27.4314,2238.25,17.9765,-9.85809,17.9765,2323.18,10,121,122,379,380,2413
175.999,0.0594919,0.00240203,-0.00435924,0.0104292,-0.00435924,-0.0423518,-0.0148936,0.0104292,-0.0148936,0.0535945,831.602,-6.62054,21.0403,-6.62054,740.862,-20.8082,21.0403,-20.8082,934.697,10,162,257,653,657,2414
380.284,0.118273,0.0364532,-0.00672453,0.0162478,-0.00672453,-0.116963,-0.0280088,0.0162478,-0.0280088,0.0624136,-4055.4,-0.877994,35.8108,-0.877994,-4391.1,-27.549,35.8108,-27.549,-3990.94,10,17,647,663,664,2415
258.951,0.086068,0.0408565,-0.0161632,0.0207581,-0.0161632,-0.0732449,-0.0217782,0.0207581,-0.0217782,0.042147,-96.9689,-21.9726,44.1677,-21.9726,-331.82,-30.6403,44.1677,-30.6403,-89.6063,10,18,646,662,663,2416
572.27,0.152286,0.0524367,-0.0104689,0.00866482,-0.0104689,-0.177715,-0.0242059,0.00866482,-0.0242059,0.0380601,-13305.9,0.728967,24.8466,0.728967,-13889.5,-23.9342,24.8466,-23.9342,-13336,10,14,663,667,668,2417
679.838,0.170037,0.0480965,0.00597773,0.00438792,0.00597773,-0.20008,-0.0381309,0.00438792,-0.0381309,0.0437286,-17037.2,22.4952,10.8812,22.4952,-17709.6,-51.2373,10.8812,-51.2373,-17036.8,10,6,398,399,668,2418
583.795,0.153925,0.0462329,-0.0159082,0.00601027,-0.0159082,-0.179642,-0.0276075,0.00601027,-0.0276075,0.0423385,-13872.2,-21.7057,18.6433,-21.7057,-14453.3,-35.5413,18.6433,-35.5413,-13877.6,10,14,399,664,668,2419
670.199,0.168373,0.049129,0.00901386,0.00364239,0.00901386,-0.195365,-0.0449648,0.00364239,-0.0449648,0.0391516,-16767.1,32.5972,9.09519,32.5972,-17427.2,-78.3561,9.09519,-78.3561,-16780.1,10,6,398,668,670,2420
121.864,0.0414855,0.00496245,-0.00075295,0.0018996,-0.00075295,-0.0278673,-0.0140422,0.0018996,-0.0140422,0.0381452,1258.41,-1.23285,3.6891,-1.23285,1192.7,-23.8864,3.6891,-23.8864,1324.83,10,161,402,403,657,2421
154.494,0.0556155,0.00419976,-0.00430123,-0.00097699,-0.00430123,-0.0230254,0.00280349,-0.00097699,0.00280349,0.0700957,4577.66,-8.13003,-1.01462,-8.13003,4528.02,11.9987,-1.01462,11.9987,4699.08,10,161,162,402,657,2422
222.754,0.0759128,0.0267077,-0.00864462,0.0297925,-0.00864462,-0.0538684,-0.0207158,0.0297925,-0.0207158,0.0490486,1360.56,-9.47144,59.2816,-9.47144,1199.96,-30.6531,59.2816,-30.6531,1409.28,10,10,647,651,652,2423
263.259,0.0868174,0.0383057,-0.0138932,0.0236858,-0.0138932,-0.0732479,-0.0260673,0.0236858,-0.0260673,0.0401923,-566.968,-17.0087,50.4845,-17.0087,-798.567,-40.3999,50.4845,-40.3999,-557.601,10,18,646,647,663,2424
475.556,0.136454,0.0337705,0.000610949,0.00447055,0.000610949,-0.145809,-0.0403325,0.00447055,-0.0403325,0.0569687,-8854.35,3.02035,10.0176,3.02035,-9282.02,-60.7849,10.0176,-60.7849,-8789.68,10,7,399,400,664,2425
365.787,0.109259,0.04012,-0.0117551,0.018271,-0.0117551,-0.115756,-0.0287295,0.018271,-0.0287295,0.0310599,-6442.4,2.24223,45.6342,2.24223,-6797.19,-47.9846,45.6342,-47.9846,-6457.85,10,14,15,663,667,2426
262.903,0.0888621,0.0270802,-0.00350264,0.0168991,-0.00350264,-0.0736937,-0.0190355,0.0168991,-0.0190355,0.067081,871.072,-0.63744,32.9104,-0.63744,669.519,-19.9295,32.9104,-19.9295,955.25,10,9,647,648,652,2427
603.509,0.149471,0.0235676,-0.00796724,0.0151403,-0.00796724,-0.184164,-0.0363147,0.0151403,-0.0363147,0.0340251,-17680.3,3.13342,44.2207,3.13342,-18248.7,-65.9553,44.2207,-65.9553,-17643.6,10,6,14,668,670,2428
391.064,0.117271,0.0274316,0.00125207,5.81138e-05,0.00125207,-0.122936,-0.0323298,5.81138e-05,-0.0323298,0.0563866,-6239.71,8.43503,-0.0822335,8.43503,-6582.43,-39.8209,-0.0822335,-39.8209,-6166.39,10,7,400,648,664,2429
555.496,0.149351,0.0233178,-0.0137412,-0.00591179,-0.0137412,-0.173455,-0.0125812,-0.00591179,-0.0125812,0.0663587,-12759.9,-12.2275,-15.2553,-12.2275,-13254.3,10.2522,-15.2553,10.2522,-12655.3,10,6,14,399,668,2430
616.297,0.159778,0.0573579,0.00153221,0.000248519,0.00153221,-0.191485,0.00231155,0.000248519,0.00231155,0.0376983,-14857.8,30.6247,0.549141,30.6247,-15494.9,1.19924,0.549141,1.19924,-14906.9,10,101,637,638,682,2431
566.23,0.142692,0.052907,0.0075161,-0.00253602,0.0075161,-0.180277,-0.00307618,-0.00253602,-0.00307618,0.0056984,-16560.8,50.2614,-4.25667,50.2614,-17169.9,-22.5442,-4.25667,-22.5442,-16683.2,10,98,101,678,682,2432
668.964,0.158049,0.0522386,0.0167135,0.00632801,0.0167135,-0.202659,-0.00641654,0.00632801,-0.00641654,0.0047413,-20443.8,24.1212,16.9971,24.1212,-21166.2,-35.2094,16.9971,-35.2094,-20582,10,123,125,363,396,2433
24.751,0.00822349,-0.00026282,-0.00254115,0.00565943,-0.00254115,-0.00394166,0.00149538,0.00565943,0.00149538,0.0023519,-194.013,-5.06304,11.3779,-5.06304,-201.568,3.05709,11.3779,3.05709,-189.044,10,83,584,671,683,2434
282.928,0.0801889,0.0154107,-0.010618,0.00825304,-0.010618,-0.105544,0.00947158,0.00825304,0.00947158,0.00674027,-9616.59,-40.1618,19.457,-40.1618,-9895.19,12.9882,19.457,12.9882,-9631.98,10,119,120,123,395,2435
796.271,0.187727,0.0713865,-0.00412304,-0.00459403,-0.00412304,-0.226754,-0.0181581,-0.00459403,-0.0181581,0.0296661,-20545.1,-65.4363,-16.3993,-65.4363,-21378.9,-45.263,-16.3993,-45.263,-20657.2,10,116,365,366,396,2436
950.085,0.197793,0.0641493,0.0512334,0.0453361,0.0512334,-0.227242,-0.0454243,0.0453361,-0.0454243,-0.0174215,-28148.6,187.335,165.912,187.335,-29040.3,-157.743,165.912,-157.743,-28385.2,10,116,125,365,396,2437
24.4725,0.00811952,-0.000193195,0.00235072,-0.00570485,0.00235072,-0.00442916,0.000955231,-0.00570485,0.000955231,0.00192276,-277.598,4.69285,-11.4825,4.69285,-286.28,1.97196,-11.4825,1.97196,-273.627,10,110,355,377,381,2438
518.817,0.141974,0.0488868,0.0140658,0.00202038,0.0140658,-0.162611,0.0294692,0.00202038,0.0294692,0.0358352,-11642.5,25.2181,6.59413,25.2181,-12161.7,65.0104,6.59413,65.0104,-11673.3,10,123,362,363,396,2439
545.877,0.147359,0.044996,0.0154676,-0.0121503,0.0154676,-0.170893,-0.0217349,-0.0121503,-0.0217349,0.0434661,-12465.7,3.26206,-33.4979,3.26206,-13007.2,-21.485,-33.4979,-21.485,-12465.8,10,152,429,430,435,2440
478.999,0.132355,0.0107176,-0.0127299,-0.00753166,-0.0127299,-0.145807,-0.0403323,-0.00753166,-0.0403323,0.056968,-11155,-39.0034,-16.4465,-39.0034,-11540.9,-62.6748,-16.4465,-62.6748,-11030.8,10,7,154,399,400,2441
844.756,0.187737,0.0495278,0.00348117,0.0010571,0.00348117,-0.235199,-0.0311814,0.0010571,-0.0311814,0.031837,-24180.3,23.7287,3.63445,23.7287,-25040.2,-57.0512,3.63445,-57.0512,-24226,10,5,397,398,670,2442
848.52,0.18969,0.0538537,-0.0109515,-0.00202768,-0.0109515,-0.235198,-0.0311813,-0.00202768,-0.0311813,0.0318369,-23810.2,-39.5582,-5.08123,-39.5582,-24677.8,-56.6968,-5.08123,-56.6968,-23868.5,10,5,397,398,438,2443
378.442,0.115964,0.0330385,0.00618519,-0.0172538,0.00618519,-0.115993,-0.0326754,-0.0172538,-0.0326754,0.0554186,-4944.64,0.142599,-38.6758,0.142599,-5275.83,-45.1307,-38.6758,-45.1307,-4885.83,10,154,413,429,430,2444
295.73,0.0951382,0.0285634,0.00461427,-0.0237083,0.00461427,-0.0817642,-0.0373094,-0.0237083,-0.0373094,0.0462704,-2060.8,-4.07672,-51.5808,-4.07672,-2294.34,-63.0209,-51.5808,-63.0209,-2014.47,10,153,154,413,430,2445
381.012,0.112531,0.0130091,-0.0076211,0.00740791,-0.0076211,-0.118685,-0.0333634,0.00740791,-0.0333634,0.0558198,-7173.94,-7.4042,19.0617,-7.4042,-7481.59,-44.0258,19.0617,-44.0258,-7068.7,10,7,17,648,664,2446
77.4304,0.0252328,0.00826038,-0.000898987,-0.00434499,-0.000898987,-0.0270366,0.00805841,-0.00434499,0.00805841,0.0062412,-1327.49,-1.6291,-8.93419,-1.6291,-1399.96,15.7566,-8.93419,15.7566,-1331.12,10,87,88,103,360,2447
191.01,0.0641716,0.00936219,0.000538814,0.00111871,0.000538814,-0.0506307,-0.0204528,0.00111871,-0.0204528,0.0522117,480.698,1.09403,2.43757,1.09403,358.397,-31.2338,2.43757,-31.2338,568.941,10,162,401,402,418,2448
162.587,0.0574546,0.0145998,0.000442289,-0.01807,0.000442289,-0.0333392,-0.00417071,-0.01807,-0.00417071,0.0589777,3494.41,-1.29141,-33.3714,-1.29141,3404.22,0.0509988,-33.3714,0.0509988,3579.65,10,149,169,418,419,2449
174.816,0.0598973,0.00909421,-0.00142981,0.00482299,-0.00142981,-0.0428995,-0.0151869,0.00482299,-0.0151869,0.0557399,1648.7,-1.40002,9.17284,-1.40002,1545.32,-20.8157,9.17284,-20.8157,1741.88,10,162,402,653,657,2450
266.055,0.0879385,0.0169885,0.00429871,0.00569279,0.00429871,-0.0761065,-0.0231824,0.00569279,-0.0231824,0.0660168,-476.235,11.0202,10.4091,11.0202,-668.231,-28.5124,10.4091,-28.5124,-372.208,10,8,401,648,653,2451
77.1194,0.0251164,0.00789435,-0.00052901,0.00441799,-0.00052901,-0.0270366,0.00805841,0.00441799,0.00805841,0.0062412,-1363.93,-1.18812,9.03132,-1.18812,-1435.71,15.766,9.03132,15.766,-1366.82,10,87,88,129,360,2452
26.2827,0.00877268,0.00618923,0.00315619,-0.00161193,0.00315619,-0.000196155,0.00364213,-0.00161193,0.00364213,-0.00507223,91.9758,6.30048,-3.16286,6.30048,79.3309,7.25622,-3.16286,7.25622,69.4112,10,87,108,129,358,2453
102.886,0.0319744,-0.000202782,-0.00279061,0.00180379,-0.00279061,-0.0280883,0.0236453,0.00180379,0.0236453,-0.011559,-4163.6,-6.10659,4.00103,-6.10659,-4222.86,50.8901,4.00103,50.8901,-4188.45,10,87,358,359,360,2454
155.858,0.0550786,0.0394603,0.0137203,-0.023759,0.0137203,-0.0262584,-0.0175611,-0.023759,-0.0175611,0.0266791,3544.05,20.9762,-46.56,20.9762,3417.52,-29.8909,-46.56,-29.8909,3522.99,10,147,414,415,420,2455
107.786,0.034197,0.0143095,0.0065853,-0.00590733,0.0065853,-0.0322416,0.0160289,-0.00590733,0.0160289,-0.00960238,-2905.03,13.2573,-12.0911,13.2573,-3002.92,33.9675,-12.0911,33.9675,-2955.86,10,129,358,360,393,2456
382.622,0.115185,0.0283983,0.00426441,-0.02228,0.00426441,-0.116596,-0.0349318,-0.02228,-0.0349318,0.0501358,-6007.71,-4.94132,-50.4913,-4.94132,-6335.48,-51.7702,-50.4913,-51.7702,-5947.84,10,154,412,413,429,2457
171.269,0.0594771,0.0143265,-0.00510866,0.0174157,-0.00510866,-0.0389636,-0.0109683,0.0174157,-0.0109683,0.0546176,2457.92,-6.92072,33.2811,-6.92072,2354.3,-12.3101,33.2811,-12.3101,2537.87,10,257,652,653,656,2458
92.249,0.0289808,0.00617144,0.00237194,-0.00124698,0.00237194,-0.0277195,0.0182986,-0.00124698,0.0182986,-0.0122681,-3506.67,5.11802,-2.60546,5.11802,-3578.58,38.8279,-2.60546,38.8279,-3545.77,10,87,129,358,360,2459
299.766,0.0957902,0.0189524,-0.00186561,0.00131633,-0.00186561,-0.0936977,-0.0162712,0.00131633,-0.0162712,0.0642051,-2478.69,-4.42123,2.8779,-4.42123,-2717.02,-5.47038,2.8779,-5.47038,-2380.86,10,7,8,400,648,2460
289.584,0.0961038,0.0431615,0.0129777,-0.0187468,0.0129777,-0.0823311,-0.0284291,-0.0187468,-0.0284291,0.0510223,-185.056,14.1916,-39.9595,14.1916,-443.403,-41.3822,-39.9595,-41.3822,-161.685,10,153,414,430,431,2461
173.175,0.0591892,0.00835437,-0.00215291,-0.0163181,-0.00215291,-0.0406997,-0.0133195,-0.0163181,-0.0133195,0.0526231,1500.41,-6.68471,-31.0209,-6.68471,1403.9,-18.6368,-31.0209,-18.6368,1589.78,10,169,418,423,424,2462
147.434,0.051585,0.0162858,0.00279597,-0.0239409,0.00279597,-0.0260158,-0.0143341,-0.0239409,-0.0143341,0.0429457,2907.37,2.37649,-45.4719,2.37649,2826.16,-22.6244,-45.4719,-22.6244,2961.81,10,170,419,424,425,2463
155.174,0.0544852,0.0423083,-0.0080078,0.0214311,-0.0080078,-0.0276895,-0.0203287,0.0214311,-0.0203287,0.0212608,3166.31,-8.98537,43.009,-8.98537,3032.11,-35.6207,43.009,-35.6207,3130.4,10,11,18,646,662,2464
257.072,0.0841091,0.0316048,-0.00339352,0.0270975,-0.00339352,-0.0717097,-0.0263452,0.0270975,-0.0263452,0.039883,-1051.57,6.60049,57.1083,6.60049,-1264.41,-40.4557,57.1083,-40.4557,-1026.51,10,17,18,647,663,2465
153.148,0.0541967,0.0381054,-0.0112131,0.0231603,-0.0112131,-0.0272244,-0.0166493,0.0231603,-0.0166493,0.0297281,3624.39,-16.2938,45.0554,-16.2938,3499.29,-28.1996,45.0554,-28.1996,3611.29,10,11,646,650,651,2466
185.75,0.0644726,0.0467922,-0.0127326,0.0322322,-0.0127326,-0.0344286,-0.0148311,0.0322322,-0.0148311,0.0180984,2490.25,-15.5664,64.0072,-15.5664,2330.14,-22.7365,64.0072,-22.7365,2436.79,10,15,16,18,662,2467
124.054,0.0432286,0.0387457,-0.0126033,0.014428,-0.0126033,-0.0214395,-0.0111586,0.014428,-0.0111586,0.0123055,2711.04,-20.449,28.9017,-20.449,2593.52,-19.976,28.9017,-19.976,2660.83,10,13,644,645,661,2468
26.618,0.00888371,0.00621943,-0.00319398,0.00168138,-0.00319398,-0.000131662,0.0036473,0.00168138,0.0036473,-0.00522198,86.2975,-6.37401,3.29533,-6.37401,73.7175,7.26718,3.29533,7.26718,63.3664,10,85,87,103,587,2469
181.226,0.0616937,0.030767,-0.0210131,0.0311999,-0.0210131,-0.0351895,-0.0120797,0.0311999,-0.0120797,0.0226552,1309.04,-35.1113,62.9258,-35.1113,1174.24,-18.4553,62.9258,-18.4553,1292.78,10,11,16,645,662,2470
152.545,0.0528703,0.0114903,-0.00367301,0.023076,-0.00367301,-0.0276974,-0.01634,0.023076,-0.01634,0.0438449,2336.06,-3.98103,44.5758,-3.98103,2259.04,-25.9359,44.5758,-25.9359,2401.45,10,256,257,652,656,2471
153.136,0.0536158,0.0333199,0.0105662,-0.0264695,0.0105662,-0.0255107,-0.0177136,-0.0264695,-0.0177136,0.0261317,2979.71,14.9362,-51.983,14.9362,2865.9,-30.1925,-51.983,-30.1925,2969.97,10,147,148,414,420,2472
313.439,0.0987672,0.0116075,-0.00611428,-0.00394831,-0.00611428,-0.0972171,-0.0151636,-0.00394831,-0.0151636,0.0677295,-3326.47,-17.8261,-6.40812,-17.8261,-3558.35,-3.0285,-6.40812,-3.0285,-3204.06,10,7,149,154,400,2473
189.876,0.0667689,0.0323607,0.0141712,-0.026407,0.0141712,-0.038939,-0.019486,-0.026407,-0.019486,0.0455411,3235.36,20.2587,-51.6168,20.2587,3096.14,-29.3228,-51.6168,-29.3228,3264.31,10,148,414,419,420,2474
160.202,0.0566033,0.0649112,-0.011672,0.00773271,-0.011672,-0.0262378,-0.00459213,0.00773271,-0.00459213,0.00127012,3582.36,-14.7916,15.6542,-14.7916,3407.41,-7.77326,15.6542,-7.77326,3461.19,10,50,180,686,690,2475
212.722,0.0691374,0.0492162,-0.0227045,-0.00893884,-0.0227045,-0.059464,0.00419829,-0.00893884,0.00419829,0.00244976,-1401.3,-35.6771,-18.6717,-35.6771,-1632.35,5.96226,-18.6717,5.96226,-1501.32,10,95,99,673,677,2476
52.1248,0.0178555,0.0211595,0.00417116,-0.00126888,0.00417116,-0.00759896,-0.00307759,-0.00126888,-0.00307759,0.0033717,1662.1,7.25479,-2.87666,7.25479,1605.72,-5.98401,-2.87666,-5.98401,1627.38,10,174,370,372,388,2477
58.5088,0.020375,0.0285072,-0.00157826,-9.01781e-05,-0.00157826,-0.00448469,-0.00316757,-9.01781e-05,-0.00316757,0.00306041,2653.3,-3.79951,-0.761819,-3.79951,2590.3,-6.01293,-0.761819,-6.01293,2604.69,10,174,175,370,388,2478
128.455,0.0447661,0.0506232,0.00426475,-0.00595863,0.00426475,-0.0234243,-0.00620938,-0.00595863,-0.00620938,0.00264566,2738.5,3.6586,-12.5575,3.6586,2596.13,-11.1352,-12.5575,-11.1352,2646.95,10,26,175,369,388,2479
160.648,0.0570287,0.066135,0.0119738,0.000432888,0.0119738,-0.0271985,-0.00616459,0.000432888,-0.00616459,0.00398974,3864.32,15.1499,-1.21639,15.1499,3685.84,-11.4362,-1.21639,-11.4362,3746.23,10,26,369,384,388,2480
54.648,0.0186781,0.0212691,-0.00475573,0.00109414,-0.00475573,-0.0079905,-0.00420226,0.00109414,-0.00420226,0.00234431,1529.68,-8.4183,2.56974,-8.4183,1472.15,-8.22404,2.56974,-8.22404,1492.62,10,181,632,642,690,2481
36.0499,0.0120971,0.00836558,-0.00748991,-0.00397616,-0.00748991,-0.00329521,-0.000225428,-0.00397616,-0.000225428,-0.000842238,413.386,-14.623,-7.77859,-14.623,389.47,-0.600059,-7.77859,-0.600059,394.607,10,48,91,634,689,2482
52.8863,0.0182657,0.0254401,0.00135929,0.000917931,0.00135929,-0.00240357,-0.00078729,0.000917931,-0.00078729,-0.00110293,2157.51,2.35884,1.60859,2.35884,2103.69,-1.52903,1.60859,-1.52903,2106.23,10,28,74,117,387,2483
50.6849,0.0172178,0.0141562,0.00919968,-0.00699323,0.00919968,-0.00329785,0.00245747,-0.00699323,0.00245747,0.000979783,1152.15,17.8066,-13.6222,17.8066,1117.38,4.98911,-13.6222,4.98911,1125.84,10,126,127,381,382,2484
102.63,0.0319189,0.000229123,0.00134967,-0.000921355,0.00134967,-0.0280883,0.0236453,-0.000921355,0.0236453,-0.011559,-4118.09,3.15778,-2.18885,3.15778,-4178.22,50.852,-2.18885,50.852,-4143.84,10,87,359,360,587,2485
158.789,0.0551726,0.0136496,0.00302053,-0.0133745,0.00302053,-0.0367578,-0.00912893,-0.0133745,-0.00912893,0.0527059,2488.87,3.72004,-25.0318,3.72004,2391.47,-10.0892,-25.0318,-10.0892,2566.15,10,169,418,419,424,2486
149.447,0.0531477,0.0398361,0.0126521,-0.0242077,0.0126521,-0.0232972,-0.0161322,-0.0242077,-0.0161322,0.0269018,3920.06,19.0543,-46.9793,19.0543,3799.62,-27.2201,-46.9793,-27.2201,3898.86,10,147,415,420,421,2487
167.197,0.0588619,0.0435548,0.00687641,-0.0220673,0.00687641,-0.0297641,-0.0248506,-0.0220673,-0.0248506,0.0244588,3324.27,5.66472,-44.6308,5.66472,3184.95,-44.0634,-44.6308,-44.0634,3293.36,10,147,153,414,431,2488
179,0.0635616,0.0151975,-0.00272258,0.0219544,-0.00272258,-0.0356187,-0.00512368,0.0219544,-0.00512368,0.0646659,3782.73,-2.19627,40.8682,-2.19627,3687.21,-0.244657,40.8682,-0.244657,3877,10,9,257,652,653,2489
157.961,0.0553824,0.0193597,-0.00343238,0.0268649,-0.00343238,-0.0276965,-0.0161028,0.0268649,-0.0161028,0.0433932,3035.29,-2.88934,51.1698,-2.88934,2944.81,-25.1346,51.1698,-25.1346,3085.11,10,256,652,655,656,2490
41.6832,0.0143376,0.00795359,-0.00178824,0.0102812,-0.00178824,-7.70892e-05,-0.00326678,0.0102812,-0.00326678,0.0113837,1880.63,-3.34463,19.9242,-3.34463,1865.15,-6.23103,19.9242,-6.23103,1887.62,10,11,209,210,654,2491
206.257,0.070996,0.0341892,-0.0124122,0.0242876,-0.0124122,-0.0513379,-0.0168333,0.0242876,-0.0168333,0.0440839,1969.39,-17.247,48.4835,-17.247,1800.08,-22.7958,48.4835,-22.7958,1992.16,10,10,18,646,647,2492
193.185,0.0675258,0.0247623,0.00861579,-0.0218542,0.00861579,-0.0428505,-0.0204484,-0.0218542,-0.0204484,0.0535727,2863.8,10.1833,-42.5755,10.1833,2731.25,-29.469,-42.5755,-29.469,2923.18,10,148,153,154,413,2493
230.444,0.077748,0.0215196,0.00825575,-0.0213385,0.00825575,-0.0604855,-0.0214916,-0.0213385,-0.0214916,0.0553564,753.427,9.68567,-42.7327,9.68567,587.352,-28.3324,-42.7327,-28.3324,826.116,10,149,413,418,419,2494
423.621,0.131724,0.0718607,0.0283048,-0.0197618,0.0283048,-0.124426,-0.0269959,-0.0197618,-0.0269959,0.0399157,-3991.66,33.7732,-48.2634,33.7732,-4425.62,-41.7052,-48.2634,-41.7052,-4058.35,10,151,430,435,436,2495
349.752,0.105592,0.0352261,0.00309512,-0.0205956,0.00309512,-0.112101,-0.024616,-0.0205956,-0.024616,0.0369856,-5819.31,-7.25174,-46.5845,-7.25174,-6149.84,-26.4637,-46.5845,-26.4637,-5806.76,10,152,154,429,430,2496
200.825,0.0682369,0.0184975,0.00744812,-0.0271053,0.00744812,-0.0445763,-0.0245741,-0.0271053,-0.0245741,0.0444993,1169.57,7.9396,-54.2791,7.9396,1042.11,-39.0323,-54.2791,-39.0323,1226.46,10,148,149,413,419,2497
98.4938,0.0343225,0.0241573,-0.00919999,0.0186704,-0.00919999,-0.0127077,-0.00818676,0.0186704,-0.00818676,0.0171513,2684.53,-15.9255,36.2704,-15.9255,2613.13,-14.4712,36.2704,-14.4712,2672.13,10,12,644,645,649,2498
129.609,0.0441364,0.0312921,-0.0166127,0.00802051,-0.0166127,-0.0267684,-0.0158374,0.00802051,-0.0158374,0.0112822,1330.8,-28.2925,17.4902,-28.2925,1213.27,-30.293,17.4902,-30.293,1291.17,10,13,660,661,665,2499
674.293,0.167501,0.0523702,0.0173855,0.00310148,0.0173855,-0.203568,-0.00873951,0.00310148,-0.00873951,0.037689,-17432,24.3941,7.8666,24.3941,-18122.3,-37.0781,7.8666,-37.0781,-17475.1,10,125,363,365,396,2500
224.041,0.0785172,0.0861557,0.0118483,0.0036417,0.0118483,-0.0444913,-0.00464656,0.0036417,-0.00464656,-0.00249096,3137.38,6.99977,5.35416,6.99977,2885.14,-9.33234,5.35416,-9.33234,2966.78,10,26,121,124,380,2501
37.1803,0.0124917,0.00175832,0.00092998,0.00182628,0.00092998,-0.00383964,-0.00911685,0.00182628,-0.00911685,0.00706127,472.499,1.93874,3.65127,1.93874,461.053,-17.8497,3.65127,-17.8497,483.42,10,212,404,625,659,2502
53.7862,0.018478,0.00136454,-0.000502351,-0.00361393,-0.000502351,-0.00517904,-0.00574335,-0.00361393,-0.00574335,0.0225309,1795.06,-1.09437,-6.84269,-1.09437,1782.34,-10.8724,-6.84269,-10.8724,1836.38,10,160,166,404,427,2503
111.737,0.0385292,0.00265254,-0.000334886,0.00340186,-0.000334886,-0.0219847,-0.00781705,0.00340186,-0.00781705,0.0419721,2016.55,-0.459996,6.40974,-0.459996,1968.29,-12.1527,6.40974,-12.1527,2093.28,10,161,403,404,659,2504
835.163,0.187787,0.0529044,-0.0149675,-0.00383159,-0.0149675,-0.229746,-0.0408876,-0.00383159,-0.0408876,0.028601,-23461.2,-57.127,-11.6015,-57.127,-24302.5,-99.0649,-11.6015,-99.0649,-23525.5,10,5,365,397,438,2505
780.83,0.164236,0.0280228,-0.00964855,0.00296929,-0.00964855,-0.223666,-0.0352358,0.00296929,-0.0352358,-0.0021682,-27587.2,5.92506,15.1635,5.92506,-28393.4,-88.3118,15.1635,-88.3118,-27677,10,4,5,19,670,2506
384.74,0.115022,0.0414068,-0.023905,0.0130819,-0.023905,-0.118376,-0.0314152,0.0130819,-0.0314152,0.0352113,-6389.14,-48.0127,33.7562,-48.0127,-6755.63,-41.0927,33.7562,-41.0927,-6393.81,10,14,17,399,664,2507
682.651,0.163722,0.0532125,0.0149972,-0.00100183,0.0149972,-0.202145,-0.0303107,-0.00100183,-0.0303107,0.0148152,-19544.6,56.3556,-5.64099,56.3556,-20259.4,-38.6764,-5.64099,-38.6764,-19639.9,10,5,6,398,670,2508
169.64,0.0552691,0.0325665,0.020822,-0.00568753,0.020822,-0.0429136,0.0196536,-0.00568753,0.0196536,0.00142626,-1291.6,38.4385,-10.3721,38.4385,-1449.73,41.2701,-10.3721,41.2701,-1358.05,10,119,379,390,391,2509
821.688,0.188523,0.04982,0.0178231,0.000293801,0.0178231,-0.23325,-0.00403804,0.000293801,-0.00403804,0.045648,-22246.7,56.5482,2.9212,56.5482,-23065.9,-41.8694,2.9212,-41.8694,-22260.2,10,90,363,364,637,2510
536.397,0.131484,0.023756,0.00983014,-0.00580306,0.00983014,-0.175714,0.019865,-0.00580306,0.019865,0.0105189,-18294.1,36.3017,-15.1608,36.3017,-18838.5,27.5563,-15.1608,27.5563,-18324.4,10,89,94,98,362,2511
537.11,0.131815,0.024335,-0.0103971,0.00640415,-0.0103971,-0.1757,0.0197864,0.00640415,0.0197864,0.0106995,-18221.3,-37.417,16.6484,-37.417,-18766.5,27.2498,16.6484,27.2498,-18252.6,10,89,120,123,362,2512
899.689,0.188545,0.0515879,-0.010335,-0.00402786,-0.010335,-0.244519,-0.0270384,-0.00402786,-0.0270384,0.0115344,-27757.9,-46.2007,-14.8476,-46.2007,-28692.5,-107.152,-14.8476,-107.152,-27889.4,10,4,90,364,365,2513
273.471,0.0772671,0.00877969,0.0171139,-0.0168271,0.0171139,-0.0817546,0.04084,-0.0168271,0.04084,-0.0129551,-9817.09,47.1728,-41.8605,47.1728,-10028.5,92.1708,-41.8605,92.1708,-9860.7,10,88,103,360,361,2514
589.614,0.148872,0.0616871,-0.00476451,0.00589584,-0.00476451,-0.183917,-0.00622962,0.00589584,-0.00622962,0.00474003,-16424.3,-48.797,12.1109,-48.797,-17065,-30.869,12.1109,-30.869,-16573.1,10,123,125,392,396,2515
225.564,0.067976,0.0202592,-0.00156931,0.00849601,-0.00156931,-0.0791995,0.0216927,0.00849601,0.0216927,0.0071627,-5951.04,-4.90232,18.927,-4.90232,-6173.96,40.8845,18.927,40.8845,-5976.22,10,88,89,120,361,2516
796.283,0.173317,0.0216469,0.00900871,-0.00345402,0.00900871,-0.225461,-0.0382027,-0.00345402,-0.0382027,0.0289866,-25521,-7.18013,-15.4873,-7.18013,-26285,-96.3529,-15.4873,-96.3529,-25493.7,10,5,156,365,438,2517
224.676,0.067664,0.0198193,0.00130636,-0.00759251,0.00130636,-0.0791995,0.0216927,-0.00759251,0.0216927,0.0071627,-5990.89,4.36941,-16.9944,4.36941,-6212.98,40.9098,-16.9944,40.9098,-6015.1,10,88,89,94,361,2518
535.79,0.132758,0.0256323,-0.0113403,0.0114111,-0.0113403,-0.175016,0.0163392,0.0114111,0.0163392,0.0140948,-17641.8,-40.1173,29.3405,-40.1173,-18182.5,15.1442,29.3405,15.1442,-17667.9,10,89,90,123,362,2519
582.704,0.138115,0.0276013,-0.00718978,-0.00770246,-0.00718978,-0.188605,-0.00559379,-0.00770246,-0.00559379,0.00572179,-20309.4,7.07224,-20.7971,7.07224,-20917.5,-31.0054,-20.7971,-31.0054,-20372.8,10,90,98,101,682,2520
62.8585,0.021548,0.0235852,-0.00947622,-0.00078762,-0.00947622,-0.00769289,-0.000435021,-0.00078762,-0.000435021,0.0016897,1709.76,-17.7772,-1.41704,-17.7772,1648.16,-0.943239,-1.41704,-0.943239,1666.78,10,96,97,105,684,2521
40.2288,0.0136626,0.0116636,-0.00894528,0.00364155,-0.00894528,-0.000771814,-0.000604888,0.00364155,-0.000604888,0.000640973,1133.24,-17.4931,7.09256,-17.4931,1108.6,-1.1066,7.09256,-1.1066,1111.42,10,106,683,687,688,2522
65.7834,0.0222902,0.015762,-0.010991,0.0109267,-0.010991,-0.0024351,0.00450605,0.0109267,0.00450605,-0.00272097,1005.11,-21.1512,21.1576,-21.1512,968.158,9.24508,21.1576,9.24508,967.609,10,104,671,672,675,2523
28.6316,0.00966697,0.00716897,-0.00648754,0.00291479,-0.00648754,-0.00133366,0.00107578,0.00291479,0.00107578,0.00201349,775.448,-12.765,5.78173,-12.765,758.558,2.12673,5.78173,2.12673,765.236,10,105,106,107,683,2524
35.8954,0.012052,0.00949401,-0.00596619,0.00388395,-0.00596619,-0.00260083,0.00325144,0.00388395,0.00325144,-0.00232795,448.709,-11.7087,7.69913,-11.7087,424.495,6.50007,7.69913,6.50007,425.075,10,84,104,105,671,2525
64.4395,0.022125,0.024525,0.00958837,0.000804111,0.00958837,-0.00769377,-0.000489631,0.000804111,-0.000489631,0.00175178,1805.95,17.9355,1.43714,17.9355,1742.6,-1.05151,1.43714,-1.05151,1761.32,10,117,118,127,382,2526
29.8378,0.0100659,0.00701448,0.00734386,-0.0018119,0.00734386,-0.001518,0.000562328,-0.0018119,0.000562328,0.0018658,726.053,14.4811,-3.59932,14.4811,709.092,1.09399,-3.59932,1.09399,715.847,10,126,127,130,381,2527
35.25,0.0118443,0.00949991,0.00593027,-0.00369723,0.00593027,-0.0023168,0.00322475,-0.00369723,0.00322475,-0.00217124,493.53,11.6361,-7.32386,11.6361,469.896,6.43875,-7.32386,6.43875,470.218,10,109,127,128,377,2528
313.312,0.0929189,0.0460751,-0.0201203,-0.00780306,-0.0201203,-0.103945,-0.0057227,-0.00780306,-0.0057227,0.0034886,-6844.07,-15.3578,-15.6803,-15.3578,-7191.63,-17.9792,-15.6803,-17.9792,-6946.09,10,98,99,101,678,2529
137.361,0.0475129,0.0481763,-0.0167489,-0.00808669,-0.0167489,-0.0242772,-0.000390592,-0.00808669,-0.000390592,0.00175275,2291.57,-26.7057,-15.2222,-26.7057,2147.23,-1.7699,-15.2222,-1.7699,2199.49,10,95,96,99,673,2530
550.015,0.140795,0.0465448,-0.0183182,-0.0118321,-0.0183182,-0.174183,-0.0151292,-0.0118321,-0.0151292,0.0133062,-15629.9,-2.00662,-26.509,-2.00662,-16214,-36.9476,-26.509,-36.9476,-15720.9,10,2,101,638,678,2531
234.876,0.0762886,0.0492103,-0.0342748,0.0118226,-0.0342748,-0.0497743,0.0242931,0.0118226,0.0242931,-0.00596873,-1443.32,-67.8572,24.697,-67.8572,-1649.25,50.2471,24.697,50.2471,-1558.32,10,95,677,680,681,2532
339.839,0.101045,0.0547689,0.0233615,0.0110087,0.0233615,-0.108287,-0.00681729,0.0110087,-0.00681729,0.00310894,-6672.68,17.4706,21.9364,17.4706,-7051.22,-21.6543,21.9364,-21.6543,-6796.72,10,122,123,125,392,2533
144.412,0.0501265,0.0513965,0.0178781,0.00798724,0.0178781,-0.0249029,-0.000905478,0.00798724,-0.000905478,0.001646,2504.87,28.2072,14.8552,28.2072,2353.11,-2.77914,14.8552,-2.77914,2406.42,10,118,119,122,379,2534
24.6492,0.00828143,0.00482108,0.00554246,-0.00324634,0.00554246,-0.00084941,-0.00131309,-0.00324634,-0.00131309,0.000868491,477.931,10.9723,-6.43347,10.9723,466.532,-2.56139,-6.43347,-2.56139,469.971,10,130,354,381,385,2535
146.069,0.0505388,0.051625,0.0167601,0.00673553,0.0167601,-0.0270646,-0.00199143,0.00673553,-0.00199143,0.00169069,2314.01,26.1492,12.548,26.1492,2157.74,-4.80642,12.548,-4.80642,2215.22,10,118,121,122,379,2536
68.0592,0.0233867,0.0264596,0.00924148,-0.000410288,0.00924148,-0.00832237,0.000758633,-0.000410288,0.000758633,0.00101726,1857.51,16.9822,-0.761848,16.9822,1789.06,1.52252,-0.761848,1.52252,1807.65,10,117,382,386,387,2537
337.978,0.109069,0.0820654,0.0256758,-0.00509333,0.0256758,-0.0959057,-0.0135897,-0.00509333,-0.0135897,0.0131063,-1761.55,23.3873,-15.7447,23.3873,-2141.42,-24.1071,-15.7447,-24.1071,-1908.17,10,114,367,368,380,2538
195.768,0.0682774,0.051031,-0.0212239,0.0266275,-0.0212239,-0.0393351,-0.0142418,0.0266275,-0.0142418,0.0225098,2784.74,-31.7592,53.2874,-31.7592,2605.54,-22.1367,53.2874,-22.1367,2730.14,10,16,645,661,662,2539
91.1054,0.0328034,0.0426402,0.0074857,0.00925199,0.0074857,-0.000660552,-0.0112891,0.00925199,-0.0112891,0.00657826,4661.81,15.4446,18.5375,15.4446,4583.15,-20.3829,18.5375,-20.3829,4596.67,10,13,219,644,660,2540
50.8796,0.0171211,0.010385,-0.0114727,0.00545464,-0.0114727,-0.00428132,0.00127681,0.00545464,0.00127681,1.92356e-05,582.498,-22.578,10.7397,-22.578,552.985,2.7028,10.7397,2.7028,561.556,10,106,683,684,688,2541
71.4569,0.0242189,0.0131132,-0.0104625,0.00872497,-0.0104625,-0.010192,-0.0102179,0.00872497,-0.0102179,0.00797356,1014.44,-19.8941,17.5193,-19.8941,968.068,-20.0108,17.5193,-20.0108,1004.82,10,219,643,644,660,2542
90.7455,0.0300219,0.0129174,0.0152001,-0.0134471,0.0152001,-0.0106941,0.0105251,-0.0134471,0.0105251,-0.00536135,-420.258,29.731,-26.6469,29.731,-469.53,21.8548,-26.6469,21.8548,-459.004,10,128,378,389,390,2543
212.264,0.0711009,0.0624837,0.0260572,-0.00343418,0.0260572,-0.0480448,-0.00205934,-0.00343418,-0.00205934,-0.00405216,413.927,40.5485,-8.35974,40.5485,184.812,-4.09275,-8.35974,-4.09275,277.163,10,26,121,380,384,2544
222.741,0.0781064,0.0854441,0.0114209,0.00701165,0.0114209,-0.0438139,-0.00651934,0.00701165,-0.00651934,-0.00219258,3170.13,6.44982,11.069,6.44982,2920.79,-13.4595,11.069,-13.4595,3001.29,10,26,114,124,380,2545
26.064,0.00881318,0.00749399,0.00639427,-0.000213965,0.00639427,-0.000577965,-0.000351908,-0.000213965,-0.000351908,0.00180688,864.529,12.5646,-0.439953,12.5646,848.481,-0.689324,-0.439953,-0.689324,853.252,10,126,130,381,385,2546
72.1692,0.0245265,0.0137744,0.0116046,-0.0102802,0.0116046,-0.00827423,-0.00911775,-0.0102802,-0.00911775,0.00704347,1176.21,22.0103,-20.6009,22.0103,1132.12,-17.6902,-20.6009,-17.6902,1163.42,10,189,370,416,417,2547
123.342,0.0430952,0.0462303,0.0049031,-0.00639044,0.0049031,-0.023397,-0.0106304,-0.00639044,-0.0106304,0.00840427,2883.34,4.74567,-13.5276,4.74567,2749.71,-19.7966,-13.5276,-19.7966,2811.26,10,175,369,370,433,2548
55.0989,0.0190694,0.0235762,-0.00393337,-0.00808599,-0.00393337,-0.00213396,-0.000299885,-0.00808599,-0.000299885,0.00179915,2276.92,-8.00529,-15.7622,-8.00529,2227.79,-0.400202,-15.7622,-0.400202,2235.39,10,174,183,189,370,2549
48.1846,0.0163554,0.0123773,0.00404683,-0.00903609,0.00404683,-0.00729084,-0.00116817,-0.00903609,-0.00116817,0.00622658,1101.33,7.43299,-17.7954,7.43299,1062.28,-1.91445,-17.7954,-1.91445,1088.96,10,174,183,370,371,2550
384.089,0.118268,0.0833787,0.0291176,0.0103881,0.0291176,-0.110799,-0.00435124,0.0103881,-0.00435124,0.00268205,-4538.31,30.6258,19.8612,30.6258,-4973,-14.562,19.8612,-14.562,-4721.4,10,122,124,380,392,2551
60.0058,0.0207256,0.0253112,0.0080362,0.00163535,0.0080362,-0.00488542,-0.00163754,0.00163535,-0.00163754,0.00168058,2160.52,14.885,2.98156,14.885,2101.6,-3.28799,2.98156,-3.28799,2114.52,10,117,126,127,382,2552
79.0826,0.0272465,0.0270074,0.0147754,0.000587796,0.0147754,-0.00916389,0.000367869,0.000587796,0.000367869,0.00320507,2016.01,27.0617,1.24091,27.0617,1943.63,0.649705,1.24091,0.649705,1968.77,10,118,119,128,378,2553
285.135,0.0915747,0.0577525,-0.031731,0.0031912,-0.031731,-0.0790869,0.0203344,0.0031912,0.0203344,0.0124192,-2093.29,-53.2214,4.93283,-53.2214,-2386.79,44.5324,4.93283,44.5324,-2193.43,10,99,674,677,678,2554
227.166,0.073401,0.0470282,0.0306888,-0.0104476,0.0306888,-0.051802,0.0233405,-0.0104476,0.0233405,-0.00548338,-1756.32,60.8423,-21.7832,60.8423,-1962.63,48.6684,-21.7832,48.6684,-1866.35,10,119,391,394,395,2555
80.9415,0.0280534,0.0277041,-0.0168868,-0.000414272,-0.0168868,-0.00600818,0.000660697,-0.000414272,0.000660697,0.00303572,2370.87,-31.1483,-0.897541,-31.1483,2303.45,1.23133,-0.897541,1.23133,2322.14,10,95,96,104,672,2556
162.84,0.0541299,0.0331821,-0.0294296,0.00328784,-0.0294296,-0.0376745,0.00592795,0.00328784,0.00592795,0.00729153,-100.017,-57.8419,5.78138,-57.8419,-244.562,10.3525,5.78138,10.3525,-152.588,10,95,104,676,680,2557
72.4152,0.0236286,0.00945243,-0.0113934,0.0042257,-0.0113934,-0.0137256,0.0112566,0.0042257,0.0112566,-0.00762802,-1248.96,-23.1578,8.69458,-23.1578,-1296.39,23.0282,8.69458,23.0282,-1284.08,10,85,104,675,679,2558
35.8827,0.0120699,0.00907151,0.00759771,-0.00149563,0.00759771,-0.00108793,0.00320103,-0.00149563,0.00320103,-0.00231292,557.056,14.872,-2.91618,14.872,536.457,6.38717,-2.91618,6.38717,534.191,10,108,109,128,389,2559
0.00352512,1.17504e-06,0,4.15546e-07,-1.32349e-23,4.15546e-07,-7.42935e-07,-8.23937e-07,-1.32349e-23,-8.23937e-07,0,-0.0735508,0.000831093,-1.36954e-09,0.000831093,-0.0750367,-0.00164788,-1.36954e-09,-0.00164788,-0.0735508,10,165,187,407,408,2560
218.835,0.0661232,0.0172968,0.00136829,-0.00219709,0.00136829,-0.0789035,0.0194235,-0.00219709,0.0194235,0.0109681,-5799.59,4.48493,-5.00998,4.48493,-6014.65,35.0243,-5.00998,35.0243,-5810.24,10,88,94,103,361,2561
79.1669,0.027309,0.0262216,-0.0160228,0.00240208,-0.0160228,0.000943298,0.00416172,0.00240208,0.00416172,-0.00537299,2085.18,-31.7377,5.47389,-31.7377,2038.38,7.61299,5.47389,7.61299,2025.19,10,108,129,358,393,2562
169.316,0.0537762,0.0333537,-0.0165451,-0.000180472,-0.0165451,-0.037068,0.0232102,-0.000180472,0.0232102,-0.0205617,-2802.14,-33.1068,0.0358506,-33.1068,-2950.44,48.9684,0.0358506,48.9684,-2917.42,10,103,360,361,680,2563
152.275,0.0466541,0.00949356,-0.00368374,0.00113995,-0.00368374,-0.0612514,0.0061827,0.00113995,0.0061827,0.00549701,-4990.67,-13.2179,2.7149,-13.2179,-5143.65,10.287,2.7149,10.287,-4998.09,10,119,120,129,394,2564
181.79,0.0613322,0.0456127,0.0290024,-0.00684816,0.0290024,-0.0404152,0.0086151,-0.00684816,0.0086151,0.00772987,807.517,50.5299,-12.9105,50.5299,629.464,18.4216,-12.9105,18.4216,728.096,10,121,379,380,384,2565
613.431,0.167694,0.0927095,0.0247754,-0.00901684,0.0247754,-0.180424,-0.0162731,-0.00901684,-0.0162731,0.0227875,-11603.8,5.4693,-27.9469,5.4693,-12280.3,-34.7913,-27.9469,-34.7913,-11777.6,10,115,366,392,396,2566
35.2854,0.0117089,0,0,-0.00935232,0,0,0.00364375,-0.00935232,0.00364375,-0.00249821,-267.774,-0.136926,-18.7384,-0.136926,-268.072,7.30066,-18.7384,7.30066,-273.549,10,109,356,357,389,2567
60.2301,0.0194153,0.000890579,0.000848007,-0.0105641,0.000848007,-0.0169361,0.00914655,-0.0105641,0.00914655,-0.00334664,-1987.76,1.76092,-21.851,1.76092,-2024.96,18.8329,-21.851,18.8329,-1997.18,10,108,357,389,393,2568
218.969,0.0661788,0.0174412,-0.00158856,0.00241949,-0.00158856,-0.0789007,0.0194032,0.00241949,0.0194032,0.0109629,-5785.81,-4.91874,5.47116,-4.91874,-6001.12,34.9615,5.47116,34.9615,-5796.77,10,88,120,129,361,2569
78.5435,0.0271805,0.0305516,0.0111878,0.00333771,0.0111878,-0.00910936,0.000890599,0.00333771,0.000890599,0.00228257,2284.69,20.1485,6.37823,20.1485,2206.74,1.48351,6.37823,1.48351,2229.43,10,118,127,128,378,2570
493.59,0.134025,0.0407187,-0.0135113,0.0017503,-0.0135113,-0.156633,0.0313533,0.0017503,0.0313533,0.0297877,-12123,-28.3007,3.18585,-28.3007,-12610.1,72.8489,3.18585,72.8489,-12149.1,10,98,362,681,682,2571
47.723,0.0155663,0.00692436,0.00273805,-0.00173635,0.00273805,-0.0159891,0.00629493,-0.00173635,0.00629493,-0.00352695,-1274.54,5.11274,-3.36605,5.11274,-1321.64,12.8704,-3.36605,12.8704,-1295.99,10,108,128,129,393,2572
532.031,0.131482,0.0237165,0.0102684,-0.00590042,0.0102684,-0.175016,0.0163392,-0.00590042,0.0163392,0.0140948,-17803.7,37.4565,-14.8526,37.4565,-18340.6,15.1652,-14.8526,15.1652,-17824.6,10,89,90,98,362,2573
168.108,0.0548641,0.0290677,-0.0246597,0.00561462,-0.0246597,-0.0397845,0.0202693,0.00561462,0.0202693,0.00275235,-1196.41,-46.1642,10.1605,-46.1642,-1341.83,42.641,10.1605,42.641,-1253.59,10,95,673,676,677,2574
47.6663,0.0161852,0.0133009,-0.00856509,0.00704694,-0.00856509,-0.00206525,0.00222147,0.00704694,0.00222147,0.000283474,1124.16,-16.6156,13.7423,-16.6156,1093.54,4.50432,13.7423,4.50432,1098.2,10,105,106,683,684,2575
115.077,0.0362676,0.0141008,-0.0070204,0.00556867,-0.0070204,-0.0345417,0.0177364,0.00556867,0.0177364,-0.0107727,-3301.23,-13.965,11.2601,-13.965,-3404.39,37.825,11.2601,37.825,-3354.53,10,103,360,587,679,2576
24.8277,0.00824853,0,0,6.21279e-05,0,0,0.00705986,6.21279e-05,0.00705986,-0.00188406,-196.847,0.00176028,0.124421,0.00176028,-196.647,14.1384,0.124421,14.1384,-200.828,10,86,87,359,587,2577
180.338,0.057483,0.0309698,-0.0223486,-0.00749764,-0.0223486,-0.0548365,0.00367215,-0.00749764,0.00367215,0.00238945,-2590.74,-36.1773,-16.3081,-36.1773,-2779.85,5.04596,-16.3081,5.04596,-2655.29,10,95,98,99,677,2578
55.1841,0.0180271,0,0,0.00880086,0,0,0.0110305,0.00880086,0.0110305,-0.0115679,-1198.97,0.39623,17.7444,0.39623,-1198.79,22.2398,17.7444,22.2398,-1223.71,10,85,586,587,679,2579
27.178,0.00907651,0,0,-0.00748105,0,0,0.00230025,-0.00748105,0.00230025,0.00126087,112.711,-0.0687029,-14.9508,-0.0687029,112.509,4.59702,-14.9508,4.59702,114.76,10,110,355,356,377,2580
48.5916,0.0165114,0.0137729,0.00857586,-0.00740782,0.00857586,-0.00239007,0.00143953,-0.00740782,0.00143953,0.000592577,1168.41,16.6101,-14.468,16.6101,1136.27,2.97837,-14.468,2.97837,1142.15,10,127,377,381,382,2581
21.5916,0.00720528,-0.00142881,0.0055424,-0.00241139,0.0055424,0.00120551,-0.000525811,-0.00241139,-0.000525811,0.000973643,63.7962,11.0965,-4.84934,11.0965,68.7937,-0.995372,-4.84934,-0.995372,68.428,10,75,375,385,386,2582
28.1942,0.00954255,0.0101578,0.00470827,-0.00261215,0.00470827,-0.000159958,0.00139282,-0.00261215,0.00139282,-0.000679929,926.429,9.15714,-5.13805,9.15714,905.933,2.77443,-5.13805,2.77443,904.956,10,109,110,127,377,2583
227.897,0.0696573,0.0303273,-0.00476403,0.00523257,-0.00476403,-0.0814693,0.00959538,0.00523257,0.00959538,0.00785083,-5088.73,-7.77978,10.7006,-7.77978,-5334.16,15.4279,10.7006,15.4279,-5137.13,10,94,103,361,680,2584
15.7471,0.00529371,0.00551817,0.00316197,-0.000323389,0.00316197,-0.0003623,-0.000141317,-0.000323389,-0.000141317,-2.0092e-05,514.388,6.27461,-0.647742,6.27461,502.736,-0.283232,-0.647742,-0.283232,503.411,10,75,113,130,385,2585
27.5587,0.00920421,0,0,0.00756253,0,0,0.00240464,0.00756253,0.00240464,0.00130078,116.317,0.0725985,15.1132,0.0725985,116.112,4.80552,15.1132,4.80552,118.434,10,83,584,585,671,2586
47.5692,0.0161422,0.0132397,-0.00844523,0.0072908,-0.00844523,-0.00207615,0.00135815,0.0072908,0.00135815,-2.06408e-05,1087.31,-16.3884,14.2568,-16.3884,1056.79,2.81042,14.2568,2.81042,1060.87,10,105,671,683,684,2587
14.5937,0.0049031,0.00477309,-0.00313147,0.000785523,-0.00313147,4.57398e-05,-0.000123019,0.000785523,-0.000123019,-4.31868e-05,477.955,-6.22182,1.56851,-6.22182,468.6,-0.251218,1.56851,-0.251218,468.415,10,92,93,107,687,2588
261.337,0.087987,0.0745255,0.0198882,-0.0222631,0.0198882,-0.0616573,-0.0166581,-0.0222631,-0.0166581,0.00456481,736.337,18.0612,-48.8921,18.0612,458.376,-27.0816,-48.8921,-27.0816,597.632,10,114,150,155,436,2589
35.8681,0.0122722,0.0160456,-0.00356926,-0.00103556,-0.00356926,-0.000487489,-0.00356264,-0.00103556,-0.00356264,0.0004072,1581.81,-6.93398,-1.97565,-6.93398,1549.59,-6.95478,-1.97565,-6.95478,1551.31,10,91,97,106,688,2590
249.405,0.0841731,0.0283278,-0.00165121,0.0195854,-0.00165121,-0.0710096,-0.0141808,0.0195854,-0.0141808,0.0609896,785.2,3.34718,38.3041,3.34718,587.312,-9.52973,38.3041,-9.52973,853.961,10,9,17,647,648,2591
406.017,0.123242,0.0379922,0.0136151,-0.0109432,0.0136151,-0.120371,-0.0434024,-0.0109432,-0.0434024,0.0526117,-5495.81,23.8431,-26.9209,23.8431,-5854.71,-73.439,-26.9209,-73.439,-5455.75,10,154,399,400,429,2592
287.903,0.089663,0.000149939,-0.0114282,-0.0142067,-0.0114282,-0.0814682,-0.0325944,-0.0142067,-0.0325944,0.0537238,-4044.99,-26.8359,-28.3788,-26.8359,-4227.3,-49.9446,-28.3788,-49.9446,-3921.91,10,8,149,401,418,2593
608.997,0.161934,0.0595504,0.00344908,-0.0170678,0.00344908,-0.185547,-0.0231493,-0.0170678,-0.0231493,0.0439079,-13340.4,-18.8413,-44.5552,-18.8413,-13957.7,-24.9252,-44.5552,-24.9252,-13372.9,10,152,429,434,435,2594
235.665,0.0792819,0.0259533,0.018514,0.000614392,0.018514,-0.0657995,-0.0196681,0.000614392,-0.0196681,0.0551688,592.204,36.4185,-1.32976,36.4185,406.255,-24.1593,-1.32976,-24.1593,653.73,10,149,154,400,412,2595
355.299,0.103734,0.0407556,-0.0109276,0.0203376,-0.0109276,-0.114753,-0.0247197,0.0203376,-0.0247197,0.0144022,-7793.84,4.33097,50.9742,4.33097,-8155.51,-39.1233,50.9742,-39.1233,-7849.43,10,14,15,20,667,2596
615.357,0.160056,0.05527,-0.0104868,0.0159832,-0.0104868,-0.184003,-0.0363002,0.0159832,-0.0363002,0.0338792,-14666.1,-0.910967,44.9799,-0.910967,-15288.7,-62.7374,44.9799,-62.7374,-14712.8,10,14,667,668,670,2597
700.562,0.165461,0.0559994,-0.0139581,0.0183414,-0.0139581,-0.207672,-0.012122,0.0183414,-0.012122,0.0103196,-20458.8,-12.9618,55.3191,-12.9618,-21206.8,5.0758,55.3191,5.0758,-20585.1,10,14,19,667,670,2598
36.9989,0.0124928,0.000755023,-0.00116653,0.00054629,-0.00116653,-0.00346595,-0.00791002,0.00054629,-0.00791002,0.0106909,766.473,-2.27143,1.11294,-2.27143,757.827,-15.3435,1.11294,-15.3435,786.386,10,212,626,658,659,2599
39.6721,0.0135109,0.0039506,-0.00257031,0.00369921,-0.00257031,-0.00308516,-0.00755008,0.00369921,-0.00755008,0.0123372,1282.5,-4.83625,7.27298,-4.83625,1268.42,-14.4612,7.27298,-14.4612,1299.31,10,211,627,655,658,2600
117.322,0.0402777,0.00452851,-0.000611324,0.00364872,-0.000611324,-0.025434,-0.00963295,0.00364872,-0.00963295,0.0410973,1759.3,-0.800868,6.89771,-0.800868,1700.32,-15.5317,6.89771,-15.5317,1831.23,10,161,403,657,659,2601
115.82,0.03949,0.00122048,-0.000892239,0.0068605,-0.000892239,-0.0242659,-0.0104515,0.0068605,-0.0104515,0.0389781,1345.14,-1.1749,13.4022,-1.1749,1294.47,-17.5737,13.4022,-17.5737,1419.9,10,161,255,657,659,2602
104.638,0.03647,0.00857572,-0.00334663,0.0089253,-0.00334663,-0.0190071,-0.00733167,0.0089253,-0.00733167,0.0393735,2664.71,-5.58751,16.8931,-5.58751,2611.4,-11.051,16.8931,-11.051,2724.66,10,255,656,657,658,2603
47.4603,0.0164967,0.00255921,-0.0029974,-0.00465246,-0.0029974,3.14801e-05,-0.00356459,-0.00465246,-0.00356459,0.0231475,2493.03,-5.82821,-8.71132,-5.82821,2488.29,-6.62958,-8.71132,-6.62958,2532.78,10,160,161,404,427,2604
547.304,0.151554,0.0722086,-0.0217936,0.0153786,-0.0217936,-0.163518,-0.0315363,0.0153786,-0.0315363,0.0242462,-10882.5,-7.64875,45.5257,-7.64875,-11459,-67.275,45.5257,-67.275,-10996.5,10,20,638,639,669,2605
0.00327706,1.09235e-06,0,-4.81999e-07,5.29396e-23,-4.81999e-07,-6.95761e-07,-7.07983e-07,5.29396e-23,-7.07983e-07,0,-0.0688805,-0.000963999,1.36499e-09,-0.000963999,-0.070272,-0.00141597,1.36499e-09,-0.00141597,-0.0688805,10,210,215,627,628,2606
584.413,0.15284,0.0536029,0.00645224,0.00465827,0.00645224,-0.184166,0.00177781,0.00465827,0.00177781,0.0345175,-14344.1,47.2074,12.3159,47.2074,-14943.7,-2.68344,12.3159,-2.68344,-14389.4,10,101,638,678,682,2607
151.56,0.0466636,0.0107358,0.00155052,-0.00200082,0.00155052,-0.0601158,0.00765182,-0.00200082,0.00765182,0.00596156,-4696.31,8.90461,-4.79883,8.90461,-4849.45,13.217,-4.79883,13.217,-4705.42,10,94,95,103,680,2608
126.147,0.0424826,0.0316627,-0.0182778,0.00364259,-0.0182778,-0.025281,0.0139797,0.00364259,0.0139797,0.00251062,672.555,-32.7646,5.99768,-32.7646,555.805,28.0451,5.99768,28.0451,612.772,10,95,672,673,676,2609
227.441,0.071897,0.0328292,-0.023571,0.00207467,-0.023571,-0.0684519,0.0211791,0.00207467,0.0211791,0.0123864,-3081.71,-35.9559,1.81341,-35.9559,-3304.96,46.8763,1.81341,46.8763,-3131.16,10,98,99,677,678,2610
759.45,0.180622,0.0645422,-0.00128965,0.00527758,-0.00128965,-0.219389,-0.0236603,0.00527758,-0.0236603,0.0282848,-20028.2,40.0944,17.7519,40.0944,-20823.7,-40.6004,17.7519,-40.6004,-20123.6,10,19,667,669,670,2611
388.4,0.118148,0.0322336,-0.00280189,0.0217493,-0.00280189,-0.118419,-0.0330269,0.0217493,-0.0330269,0.0552448,-5382.09,9.7458,48.5731,9.7458,-5719.09,-41.2344,48.5731,-41.2344,-5319.91,10,17,647,648,664,2612
325.206,0.103863,0.0711937,-0.0273105,0.00907913,-0.0273105,-0.0907276,-0.023732,0.00907913,-0.023732,0.0110502,-2397.8,-30.1755,24.5323,-30.1755,-2749.2,-46.728,24.5323,-46.728,-2528.09,10,1,639,665,666,2613
774.433,0.177015,0.06609,-0.00190516,0.00340476,-0.00190516,-0.222738,-0.0139534,0.00340476,-0.0139534,0.00715168,-22419.5,46.8925,13.6399,46.8925,-23256.2,-43.292,13.6399,-43.292,-22589,10,3,19,637,638,2614
512.595,0.136738,0.0468539,-0.00721039,0.00116435,-0.00721039,-0.162569,-0.0302369,0.00116435,-0.0302369,0.0213411,-13169.4,31.9231,10.3169,31.9231,-13692.5,-67.0135,10.3169,-67.0135,-13229.1,10,19,20,638,669,2615
567.401,0.14803,0.0709248,-0.017535,0.00581204,-0.017535,-0.173802,-0.0134788,0.00581204,-0.0134788,0.00163622,-14435.9,4.543,20.3676,4.543,-15067.3,-31.336,20.3676,-31.336,-14614.7,10,2,20,638,639,2616
549.162,0.150303,0.0773341,-0.0199032,0.012506,-0.0199032,-0.162903,-0.0315013,0.012506,-0.0315013,0.0111586,-11564.2,-2.55553,38.8605,-2.55553,-12158.4,-67.0816,38.8605,-67.0816,-11724.5,10,20,639,666,669,2617
601.368,0.145218,0.0230833,0.00495107,-0.00822955,0.00495107,-0.18781,-0.0300816,-0.00822955,-0.0300816,0.0229945,-19203.6,-10.7153,-25.3703,-10.7153,-19792.4,-52.2695,-25.3703,-52.2695,-19196.2,10,6,152,434,438,2618
445.378,0.134163,0.0702516,0.0333115,-0.015014,0.0333115,-0.126499,-0.0385495,-0.015014,-0.0385495,0.0266742,-5876.31,48.7749,-40.5476,48.7749,-6327.4,-75.0246,-40.5476,-75.0246,-5972.26,10,151,435,436,439,2619
910.896,0.196565,0.0515879,-0.0108764,-0.000957539,-0.0108764,-0.248318,-0.0184379,-0.000957539,-0.0184379,0.0361702,-25974.9,-46.8188,-4.02794,-46.8188,-26898.5,-61.8659,-4.02794,-61.8659,-26022.1,10,4,364,365,397,2620
802.157,0.175875,0.0283589,-0.00458123,-0.0153486,-0.00458123,-0.227114,-0.0335272,-0.0153486,-0.0335272,0.0290937,-25059,23.3247,-41.9879,23.3247,-25838.1,-88.3742,-41.9879,-88.3742,-25051.2,10,4,19,637,670,2621
704.865,0.172353,0.0716029,-0.00468296,-0.00879384,-0.00468296,-0.207632,-0.0168476,-0.00879384,-0.0168476,0.0168915,-18337.4,-61.6786,-23.893,-61.6786,-19092.5,-5.49915,-23.893,-5.49915,-18478.2,10,152,156,438,439,2622
79.0991,0.0271264,0.0289451,0.00967307,-0.00356755,0.00967307,-0.0115228,0.0039184,-0.00356755,0.0039184,0.000808513,1744.5,17.5992,-6.78494,17.5992,1664.78,7.8114,-6.78494,7.8114,1689.18,10,117,118,382,383,2623
910.462,0.196805,0.0525726,0.00909808,-0.00172723,0.00909808,-0.24832,-0.0184379,-0.00172723,-0.0184379,0.0361702,-25868.6,44.5,-4.05249,44.5,-26793.4,-61.8477,-4.05249,-61.8477,-25918.6,10,4,364,397,637,2624
545.54,0.14848,0.0709984,0.0371308,-0.0209021,0.0371308,-0.161526,-0.0108252,-0.0209021,-0.0108252,0.0117868,-11906.8,54.5975,-57.0331,54.5975,-12493.6,-2.76395,-57.0331,-2.76395,-12056.7,10,151,155,436,439,2625
553.115,0.140529,0.0563464,0.0115347,-0.0015946,0.0115347,-0.174523,-0.0145493,-0.0015946,-0.0145493,-0.000638056,-16058.9,-34.8216,-8.20402,-34.8216,-16664.4,-32.9004,-8.20402,-32.9004,-16207.2,10,115,155,156,366,2626
783.421,0.163663,0.0223377,0.0106167,-0.000900416,0.0106167,-0.228828,-0.016887,-0.000900416,-0.016887,0.00519046,-28022.2,-3.90781,-5.37198,-3.90781,-28826.9,-50.7298,-5.37198,-50.7298,-28077.9,10,5,116,156,365,2627
106.743,0.036577,0.000839163,0.000500041,-0.00590043,0.000500041,-0.0195148,-0.0118279,-0.00590043,-0.0118279,0.037295,1640.68,0.508872,-11.3915,0.508872,1600.15,-20.4449,-11.3915,-20.4449,1712.71,10,161,167,423,427,2628
34.3889,0.0115155,0.000200537,0.000376159,-0.00160437,0.000376159,-0.00380926,-0.00833295,-0.00160437,-0.00833295,0.00655304,271.89,0.691638,-3.2024,0.691638,263.591,-16.3843,-3.2024,-16.3843,284.87,10,166,406,407,427,2629
111.319,0.0383769,0.00250919,-5.49527e-05,-0.0014874,-5.49527e-05,-0.0219847,-0.00781695,-0.0014874,-0.00781695,0.0419716,2003.83,-0.194042,-2.69913,-0.194042,1955.83,-12.1542,-2.69913,-12.1542,2080.82,10,161,403,404,427,2630
112.252,0.0396075,0.00136837,0.000485928,0.0082863,0.000485928,-0.0142142,3.33193e-05,0.0082863,3.33193e-05,0.0496206,3381.8,1.45185,15.5376,1.45185,3352.5,3.27835,15.5376,3.27835,3472.95,10,161,162,257,657,2631
270.671,0.0890277,0.0172875,-0.000573553,0.0257508,-0.000573553,-0.0745696,-0.0217052,0.0257508,-0.0217052,0.0613668,-766.77,5.87524,51.7872,5.87524,-955.852,-26.4875,51.7872,-26.4875,-671.062,10,9,648,652,653,2632
84.6008,0.0300015,0.00608616,0.00312344,-0.0129606,0.00312344,-0.00488381,-0.00289235,-0.0129606,-0.00289235,0.0377044,3690.2,5.45406,-24.1708,5.45406,3669.64,-4.20673,-24.1708,-4.20673,3750.24,10,168,170,424,425,2633
63.0805,0.0220757,0.0079639,-0.00122047,-0.0148672,-0.00122047,-0.000675039,-0.000755668,-0.0148672,-0.000755668,0.0229124,2906.92,-2.46397,-28.0253,-2.46397,2891.03,-1.21049,-28.0253,-1.21049,2936.54,10,165,168,425,428,2634
93.2056,0.0320936,0.00455976,0.000230838,-0.0137242,0.000230838,-0.0131095,-0.0110553,-0.0137242,-0.0110553,0.0296584,1936.16,-0.406076,-26.3335,-0.406076,1901.61,-19.7353,-26.3335,-19.7353,1986.28,10,167,168,424,428,2635
42.444,0.0144417,0.00266966,0.00198122,-0.00506372,0.00198122,-0.00209111,-0.00863927,-0.00506372,-0.00863927,0.0121068,1225.44,3.68708,-9.93597,3.68708,1215.8,-16.6238,-9.93597,-16.6238,1244.41,10,165,408,425,428,2636
34.7371,0.0117282,2.68326e-05,0.000528329,-0.000589477,0.000528329,-0.00333115,-0.00667823,-0.000589477,-0.00667823,0.0112069,760.162,1.03139,-1.18604,1.03139,753.293,-12.9247,-1.18604,-12.9247,782.471,10,165,166,407,427,2637
108.469,0.038633,0.0241466,0.00700785,-0.0223703,0.00700785,-0.0110558,-0.00932239,-0.0223703,-0.00932239,0.0293357,3981.28,11.3861,-42.19,11.3861,3915.03,-15.6519,-42.19,-15.6519,3992.98,10,147,420,421,426,2638
117.474,0.0409356,0.0161795,0.00500195,-0.024136,0.00500195,-0.0154825,-0.0115151,-0.024136,-0.0115151,0.0285979,2666.77,7.53835,-46.3823,7.53835,2605.88,-19.7701,-46.3823,-19.7701,2693.09,10,147,170,420,425,2639
210.289,0.0736537,0.0538752,0.00887279,-0.040829,0.00887279,-0.0387568,-0.0101144,-0.040829,-0.0101144,0.0226035,3039.11,5.79635,-79.347,5.79635,2861.1,-11.9924,-79.347,-11.9924,2982.31,10,147,150,153,431,2640
113.761,0.0406985,0.0469303,-5.11738e-05,-0.0201967,-5.11738e-05,-0.00868015,-0.00365175,-0.0201967,-0.00365175,0.00713716,4288.12,-2.51163,-38.3633,-2.51163,4185.13,-5.78966,-38.3633,-5.78966,4215.4,10,62,63,189,433,2641
108.852,0.0386903,0.0486252,-0.00436972,-0.0129195,-0.00436972,-0.00544501,-0.00447875,-0.0129195,-0.00447875,-0.00201532,3905.08,-10.0639,-25.8397,-10.0639,3805.02,-7.8211,-25.8397,-7.8211,3812.04,10,25,63,189,433,2642
41.4861,0.0143216,0.000543762,0.0050475,-0.00514442,0.0050475,0.00240268,-0.00205176,-0.00514442,-0.00205176,0.0185156,2081.52,9.69952,-9.94874,9.69952,2085.23,-3.89631,-9.94874,-3.89631,2116.33,10,147,163,425,426,2643
67.4741,0.0236725,0.0149045,0.00466156,-0.0169797,0.00466156,-0.000111793,-0.00477984,-0.0169797,-0.00477984,0.0170451,3069.06,8.18161,-32.3979,8.18161,3040.57,-8.50439,-32.3979,-8.50439,3074.24,10,163,410,421,422,2644
69.8304,0.0242642,0.0246507,0.00589632,-0.00911773,0.00589632,-0.00536568,-0.00977533,-0.00911773,-0.00977533,0.00671337,2515.15,10.2997,-18.129,10.2997,2457.19,-18.5232,-18.129,-18.5232,2481.36,10,189,411,416,422,2645
35.1153,0.0120432,0.00505243,0.00234959,-0.00768685,0.00234959,0.00069161,-0.00370328,-0.00768685,-0.00370328,0.0116531,1701.55,4.51679,-14.957,4.51679,1693.02,-7.1293,-14.957,-7.1293,1714.43,10,184,189,411,422,2646
180.1,0.0635528,0.0691602,-0.00858604,0.0161854,-0.00858604,-0.0298845,-0.0112342,0.0161854,-0.0112342,0.00107448,3512.75,-7.14134,33.5252,-7.14134,3324.02,-19.251,33.5252,-19.251,3385.47,10,0,1,16,665,2647
104.824,0.0366234,0.0311448,-0.00709258,0.015875,-0.00709258,-0.0151098,-0.0124567,0.015875,-0.0124567,0.0144037,2851.8,-11.1727,31.2707,-11.1727,2762.88,-22.754,31.2707,-22.754,2821.37,10,12,645,649,650,2648
0.00289201,9.64003e-07,0,-6.52043e-07,0,-6.52043e-07,-6.3441e-07,-3.71024e-07,0,-3.71024e-07,0,-0.0628067,-0.00130409,9.67694e-10,-0.00130409,-0.0640756,-0.000742048,9.67694e-10,-0.000742048,-0.0628067,10,217,219,629,630,2649
121.04,0.0418822,0.0344504,-0.0108578,0.0156005,-0.0108578,-0.0220835,-0.0118642,0.0156005,-0.0118642,0.0127887,2284.49,-17.3881,31.1982,-17.3881,2173.42,-21.3718,31.1982,-21.3718,2243.15,10,13,644,660,661,2650
127.55,0.0453333,0.0239391,-0.00282575,0.0291283,-0.00282575,-0.010971,-0.0145558,0.0291283,-0.0145558,0.0289566,3854.08,-2.83316,54.9047,-2.83316,3789.01,-24.9961,54.9047,-24.9961,3867.92,10,11,651,654,655,2651
46.8959,0.0159395,0.0124688,-0.00457619,0.00885545,-0.00457619,-0.00618509,-0.00134056,0.00885545,-0.00134056,0.00582574,1181.76,-8.51291,17.4154,-8.51291,1144.72,-2.29277,17.4154,-2.29277,1168.42,10,181,218,631,642,2652
70.5155,0.0238662,0.015013,-0.00932642,0.00987057,-0.00932642,-0.011711,-0.00746283,0.00987057,-0.00746283,0.0067151,934.544,-17.5426,19.8483,-17.5426,881.254,-14.4018,19.8483,-14.4018,918.632,10,219,642,643,660,2653
114.919,0.0406887,0.0369507,-0.00217823,0.0247019,-0.00217823,-0.0102847,-0.00828416,0.0247019,-0.00828416,0.0123452,3652.64,-1.66352,47.4053,-1.66352,3564.32,-14.2084,47.4053,-14.2084,3609,10,11,12,16,645,2654
116.645,0.0412721,0.0373961,-0.00275039,0.0252615,-0.00275039,-0.0102093,-0.00798608,0.0252615,-0.00798608,0.0114803,3613.76,-2.74131,48.5566,-2.74131,3524.71,-13.6841,48.5566,-13.6841,3567.79,10,12,13,16,645,2655
115.07,0.0406274,0.0485559,-0.000953399,0.0072016,-0.000953399,-0.0176871,-0.00781994,0.0072016,-0.00781994,0.0064372,3507.98,2.00782,14.9089,2.00782,3383.14,-14.212,14.9089,-14.212,3429.19,10,0,180,641,660,2656
145.261,0.0485462,0.0303372,-0.0197394,0.0196665,-0.0197394,-0.0307461,-0.00690485,0.0196665,-0.00690485,0.00545234,214.582,-34.4751,40.4411,-34.4751,87.6091,-11.3332,40.4411,-11.3332,163.419,10,0,13,660,665,2657
34.7297,0.0118271,0.0117173,-0.00232394,0.0065198,-0.00232394,-0.00217925,-0.00287134,0.0065198,-0.00287134,0.00357019,1294.56,-4.44772,12.916,-4.44772,1267.56,-5.64316,12.916,-5.64316,1279.05,10,218,219,642,643,2658
33.4843,0.0111548,0.00873488,-0.00266827,0.000632784,-0.00266827,-0.00107336,-0.00404992,0.000632784,-0.00404992,-0.00783319,-18.1087,-5.18819,1.58919,-5.18819,-37.8448,-8.18059,1.58919,-8.18059,-51.214,10,218,219,630,643,2659
53.7762,0.0186235,0.0237367,0.003014,0.00768248,0.003014,-0.00181337,-0.000352878,0.00768248,-0.000352878,0.00168318,2315.3,6.18084,14.9653,6.18084,2266.41,-0.535353,14.9653,-0.535353,2273.19,10,181,218,219,642,2660
123.816,0.0430004,0.0470298,0.0063099,-0.00564928,0.0063099,-0.0242363,-0.00552365,-0.00564928,-0.00552365,0.00472883,2526.53,7.61225,-12.1204,7.61225,2388.59,-9.95846,-12.1204,-9.95846,2445.35,10,175,369,370,388,2661
32.9724,0.0109668,0.00790884,0.00254954,-0.00124674,0.00254954,-0.000766231,-0.00406893,-0.00124674,-0.00406893,-0.00827492,-114.32,4.97284,-2.8094,4.97284,-131.788,-8.23543,-2.8094,-8.23543,-146.655,10,183,189,411,417,2662
150.678,0.054133,0.0696811,0.00238271,-0.00136578,0.00238271,-0.0162809,-0.00601314,-0.00136578,-0.00601314,-0.00363388,4579.75,-1.02695,-4.34402,-1.02695,4420.03,-11.0112,-4.34402,-11.0112,4443.78,10,26,27,121,384,2663
301.593,0.0982455,0.0376295,0.00843671,-0.0252694,0.00843671,-0.0823489,-0.0369901,-0.0252694,-0.0369901,0.0461041,-1300.44,3.86069,-54.4335,3.86069,-1551.68,-61.7747,-54.4335,-61.7747,-1273.62,10,153,413,414,430,2664
127.596,0.0448916,0.0402165,0.00941136,-0.0211773,0.00941136,-0.0159743,-0.0135969,-0.0211773,-0.0135969,0.0114177,3282.57,14.2896,-41.9441,14.2896,3175.57,-24.4874,-41.9441,-24.4874,3230.94,10,62,147,415,421,2665
133.802,0.0462776,0.0393765,0.0151649,-0.0176591,0.0151649,-0.021413,-0.011823,-0.0176591,-0.011823,0.00746468,2268.28,24.8668,-35.5571,24.8668,2147.48,-20.8981,-35.5571,-20.8981,2206.75,10,25,63,432,433,2666
168.286,0.0588479,0.0650198,0.0112065,0.00839549,0.0112065,-0.024787,-0.0123948,0.00839549,-0.0123948,-0.00622506,2969.37,14.133,12.5261,14.133,2794.97,-24.6102,12.5261,-24.6102,2830.96,10,26,27,384,388,2667
92.4006,0.031534,0.0336243,0.010174,0.0011963,0.010174,-0.0148525,-0.00109644,0.0011963,-0.00109644,-0.00312215,1464.3,18.0099,2.00565,18.0099,1368.11,-2.26655,2.00565,-2.26655,1391.74,10,27,117,383,387,2668
325.895,0.103589,0.0697673,-0.0175529,0.00788341,-0.0175529,-0.100344,-0.00646724,0.00788341,-0.00646724,0.0194189,-2685.31,-5.40828,19.3518,-5.40828,-3048.41,-16.1033,19.3518,-16.1033,-2793.81,10,2,102,639,678,2669
752.022,0.164745,0.03039,-0.00706423,-0.0140618,-0.00706423,-0.220092,-0.0253175,-0.0140618,-0.0253175,0.0116615,-25093.7,20.6391,-37.6205,20.6391,-25853.5,-93.5221,-37.6205,-93.5221,-25156,10,3,90,101,637,2670
307.465,0.0914907,0.0459769,-0.0202171,-0.00813652,-0.0202171,-0.101828,-0.00494489,-0.00813652,-0.00494489,0.00290971,-6645.07,-15.811,-16.456,-15.811,-6986.81,-15.814,-16.456,-15.814,-6747.87,10,99,101,102,678,2671
316.269,0.100791,0.0806947,0.0147356,-0.00507104,0.0147356,-0.0872152,-0.0180913,-0.00507104,-0.0180913,-0.00461435,-2508.2,-1.9493,-16.8159,-1.9493,-2864.86,-35.424,-16.8159,-35.424,-2687.85,10,114,115,124,367,2672
775.004,0.167534,0.0357414,0.00522294,0.00702067,0.00522294,-0.223159,-0.0311966,0.00702067,-0.0311966,0.00493427,-25892.5,-24.9961,15.763,-24.9961,-26686.5,-110.169,15.763,-110.169,-25991.4,10,90,116,125,365,2673
117.338,0.0368641,0.00966132,-0.00396091,0.00776963,-0.00396091,-0.0305258,0.023205,0.00776963,0.023205,-0.0121115,-3497.12,-6.29641,15.2204,-6.29641,-3582.27,49.9523,15.2204,49.9523,-3545.22,10,103,104,679,680,2674
89.722,0.0309856,0.0309247,-0.0154661,0.00117898,-0.0154661,-0.0105296,0.00544949,0.00117898,0.00544949,0.00241707,2164.35,-28.2352,2.09412,-28.2352,2082.03,10.5868,2.09412,10.5868,2108.15,10,96,672,684,685,2675
50.3193,0.0173033,0.0236493,-0.000797774,-0.000631621,-0.000797774,-0.00151531,-0.000349707,-0.000631621,-0.000349707,-0.00290603,1894.59,-1.2429,-1.1213,-1.2429,1845.77,-0.689276,-1.1213,-0.689276,1843.08,10,48,49,97,689,2676
216.15,0.0702152,0.0517109,0.0187342,0.00858742,0.0187342,-0.0620233,0.00445078,0.00858742,0.00445078,0.00244052,-1428.05,27.7881,17.8522,27.7881,-1667.72,6.47942,17.8522,6.47942,-1532.28,10,119,122,379,391,2677
32.1412,0.0109658,0.0146487,0.00247641,0.000588408,0.00247641,-0.000858221,-0.00308942,0.000588408,-0.00308942,0.000403727,1409.89,4.80674,1.11718,4.80674,1379.58,-6.04341,1.11718,-6.04341,1382.04,10,74,117,126,386,2678
52.5769,0.0181136,0.0247794,0.00152887,-0.000257928,0.00152887,-0.00117762,-0.000570398,-0.000257928,-0.000570398,-0.00318983,2008.4,2.66252,-0.663428,2.66252,1958.11,-1.11175,-0.663428,-1.11175,1954.26,10,27,28,117,387,2679
103.421,0.0360047,0.042517,0.00650874,0.00518657,0.00650874,-0.0155616,-0.0031178,0.00518657,-0.0031178,0.00123137,2663.23,9.82186,9.32941,9.82186,2550.93,-6.41776,9.32941,-6.41776,2583.35,10,117,118,121,383,2680
201.769,0.070983,0.0759212,-0.011298,0.00025248,-0.011298,-0.0434254,-0.00806699,0.00025248,-0.00806699,0.00754414,3345.79,-7.44573,4.08046,-7.44573,3116.34,-15.7017,4.08046,-15.7017,3214.59,10,1,50,640,674,2681
229.412,0.0797447,0.0819395,-0.0169706,-0.0079163,-0.0169706,-0.0492134,-0.00695021,-0.0079163,-0.00695021,0.00185464,2645.67,-15.8287,-12.3782,-15.8287,2387.66,-15.0004,-12.3782,-15.0004,2488.11,10,99,100,102,674,2682
532.628,0.139376,0.0546948,-0.00768873,-0.0119732,-0.00768873,-0.168489,-0.0204196,-0.0119732,-0.0204196,0.0101169,-14297.7,32.4145,-23.8238,32.4145,-14865,-53.9632,-23.8238,-53.9632,-14411.8,10,2,3,101,638,2683
108.289,0.03707,0.0369555,-0.00916093,0.00209589,-0.00916093,-0.0222537,-0.00778847,0.00209589,-0.00778847,0.0033903,1652.96,-14.0878,5.53814,-14.0878,1535.7,-14.981,5.53814,-14.981,1587.05,10,180,641,686,690,2684
763.569,0.177939,0.0660899,-0.000594008,-0.00403109,-0.000594008,-0.219577,-0.0235617,-0.00403109,-0.0235617,0.014474,-21251.5,48.9353,-4.81535,48.9353,-22060.5,-79.7832,-4.81535,-79.7832,-21399.3,10,3,101,637,638,2685
27.5587,0.00920421,0,0,0.00756253,0,0,0.00240464,0.00756253,0.00240464,0.00130078,116.317,0.0725985,15.1132,0.0725985,116.112,4.80552,15.1132,4.80552,118.434,10,83,84,585,671,2686
90.4032,0.0314636,0.0402204,-0.00217275,-0.00123156,-0.00217275,-0.00953263,-0.00189895,-0.00123156,-0.00189895,-0.00313207,2641.12,-2.28693,-2.00656,-2.28693,2545.54,-3.6801,-2.00656,-3.6801,2557.93,10,49,97,100,685,2687
163.22,0.0566459,0.053508,-0.017953,0.00666084,-0.017953,-0.0350855,0.00877028,0.00666084,0.00877028,0.0107311,2499.06,-26.5811,11.6893,-26.5811,2323.56,18.3268,11.6893,18.3268,2413.55,10,99,100,673,674,2688
583.675,0.156281,0.0229105,0.00893235,0.0062173,0.00893235,-0.179939,-0.00873234,0.0062173,-0.00873234,0.0748114,-13011.4,1.18942,17.5708,1.18942,-13519.5,17.0939,17.5708,17.0939,-12884.4,10,6,152,399,434,2689
59.7278,0.0207698,0.028566,0.00122194,6.58818e-05,0.00122194,-0.00424558,-0.00423147,6.58818e-05,-0.00423147,0.00191526,2568.62,3.11705,0.753749,3.11705,2505.85,-8.08496,0.753749,-8.08496,2517.6,10,180,181,642,690,2690
564.78,0.152705,0.0709248,-0.0174475,0.00531621,-0.0174475,-0.174258,-0.0141893,0.00531621,-0.0141893,0.0243542,-12307.9,4.70121,17.7221,4.70121,-12918.4,-29.8175,17.7221,-29.8175,-12424.1,10,2,638,639,678,2691
102.944,0.0352344,0.0310758,-0.0171582,0.00482666,-0.0171582,-0.0138115,0.00936957,0.00482666,0.00936957,0.000528241,1632.44,-31.0001,8.74613,-31.0001,1541.86,18.8498,8.74613,18.8498,1570.87,10,95,96,672,673,2692
199.227,0.0680521,0.0591121,-0.0244931,-0.00111375,-0.0244931,-0.0474765,-0.00509811,-0.00111375,-0.00509811,0.0100227,1567,-37.3004,-0.162617,-37.3004,1350.58,-10.3686,-0.162617,-10.3686,1467.01,10,50,640,674,686,2693
85.4168,0.0298202,0.0389697,-0.00188478,0.000403517,-0.00188478,-0.00881531,-0.00278542,0.000403517,-0.00278542,-0.000854758,2822.29,-1.89026,1.30359,-1.89026,2730.85,-5.30852,1.30359,-5.30852,2746.17,10,49,50,182,690,2694
97.2832,0.0340204,0.0437338,0.00296232,0.00207441,0.00296232,-0.00981753,-0.00159158,0.00207441,-0.00159158,-0.00320317,2931.62,3.52807,3.6337,3.52807,2829.12,-3.11803,3.6337,-3.11803,2841.91,10,27,117,121,383,2695
32.3587,0.0109945,0.0135995,0.00367836,-0.000857438,0.00367836,-0.00126233,-0.00239536,-0.000857438,-0.00239536,-0.000636864,1162.99,7.16436,-1.68896,7.16436,1133.78,-4.69789,-1.68896,-4.69789,1135.03,10,74,75,126,386,2696
80.9848,0.0282938,0.0372744,0.00431278,-0.00300212,0.00431278,-0.00688778,0.000573583,-0.00300212,0.000573583,-0.000765018,2863.17,6.66794,-5.8409,6.66794,2778.38,1.23367,-5.8409,1.23367,2790.33,10,176,373,387,388,2697
27.178,0.00907651,0,0,-0.00748105,0,0,0.00230025,-0.00748105,0.00230025,0.00126087,112.711,-0.0687029,-14.9508,-0.0687029,112.509,4.59702,-14.9508,4.59702,114.76,10,109,110,356,377,2698
41.8184,0.0138903,0.00360638,0.0033618,-0.00600031,0.0033618,0.00299724,-0.00716923,-0.00600031,-0.00716923,-0.00843383,-203.207,6.52142,-12.306,6.52142,-204.504,-14.6329,-12.306,-14.6329,-226.731,10,164,185,409,426,2699
179.494,0.0569446,0.0304471,0.0189436,0.00726245,0.0189436,-0.0572451,0.00374501,0.00726245,0.00374501,0.00246605,-2872.71,29.3917,15.8447,29.3917,-3064.8,5.21691,15.8447,5.21691,-2935.33,10,119,122,123,391,2700
801.662,0.181829,0.0713865,-0.00399398,-0.00532596,-0.00399398,-0.226579,-0.016494,-0.00532596,-0.016494,0.0051829,-22877.1,-67.624,-19.3366,-67.624,-23742.9,-44.9484,-19.3366,-44.9484,-23066,10,116,156,365,366,2701
579.247,0.158536,0.0772231,0.0237145,-0.0186736,0.0237145,-0.170333,-0.0313468,-0.0186736,-0.0313468,0.0234915,-11568.6,6.35211,-54.5709,6.35211,-12182.3,-64.3643,-54.5709,-64.3643,-11697.7,10,155,366,367,439,2702
581.204,0.156826,0.0800444,0.022687,-0.01496,0.022687,-0.170001,-0.031852,-0.01496,-0.031852,0.0114681,-12406.8,3.8141,-46.0243,3.8141,-13035.9,-66.4147,-46.0243,-66.4147,-12575.5,10,155,367,436,439,2703
146.339,0.0500177,0.0466948,0.0200974,0.00462895,0.0200974,-0.0289257,-0.000866812,0.00462895,-0.000866812,0.00101877,1580.43,33.46,8.67259,33.46,1427.37,-2.58879,8.67259,-2.58879,1488.37,10,118,121,379,383,2704
207.887,0.0737182,0.0807331,0.0111034,-0.00163057,0.0111034,-0.0438087,-0.00626158,-0.00163057,-0.00626158,0.00851838,3825.19,6.15946,-6.4363,6.15946,3587.97,-12.0103,-6.4363,-12.0103,3688.07,10,26,114,368,380,2705
654.839,0.148623,0.0239193,0.00507838,-0.00917137,0.00507838,-0.203902,-0.0146517,-0.00917137,-0.0146517,0.00900186,-22951.7,-15.6474,-28.1873,-15.6474,-23623.4,-5.43819,-28.1873,-5.43819,-22992.1,10,5,6,152,438,2706
91.9049,0.0324416,0.00510834,-0.00180778,-0.0158235,-0.00180778,-0.00648982,-0.00339407,-0.0158235,-0.00339407,0.0376711,3413.47,-4.05142,-29.395,-4.05142,3391.92,-4.88902,-29.395,-4.88902,3476.07,10,167,168,170,424,2707
505.361,0.134432,0.0519273,0.00507665,-0.0177485,0.00507665,-0.162346,-0.0138111,-0.0177485,-0.0138111,0.0128555,-13323.7,-42.1728,-46.2871,-42.1728,-13856.6,-10.1049,-46.2871,-10.1049,-13416.1,10,152,155,156,439,2708
329.604,0.0986663,0.0554289,0.0212291,0.00913439,0.0212291,-0.105544,-0.00562068,0.00913439,-0.00562068,0.00273786,-6270.6,13.8647,18.0071,13.8647,-6640.22,-17.7551,18.0071,-17.7551,-6394.74,10,122,124,125,392,2709
264.004,0.0850979,0.0038738,-0.00316693,0.0155762,-0.00316693,-0.0746894,-0.0218985,0.0155762,-0.0218985,0.0618958,-1992.12,-1.94251,32.9636,-1.94251,-2159.17,-27.7718,32.9636,-27.7718,-1867.83,10,8,9,648,653,2710
415.605,0.119895,0.0411008,0.0115082,-0.0139014,0.0115082,-0.127989,-0.0405608,-0.0139014,-0.0405608,0.0271773,-8510.62,-5.46327,-39.4844,-5.46327,-8907.93,-82.192,-39.4844,-82.192,-8538.09,10,151,152,435,439,2711
675.847,0.151944,0.0233446,-0.00481737,0.0124161,-0.00481737,-0.208216,-0.0124339,0.0124161,-0.0124339,0.011172,-23531.1,17.0329,37.569,17.0329,-24219.2,4.1875,37.569,4.1875,-23564.5,10,6,14,19,670,2712
821.525,0.185851,0.0447302,0.0153093,0.00442598,0.0153093,-0.233827,-0.00175386,0.00442598,-0.00175386,0.0423823,-23112.3,47.1253,14.6117,47.1253,-23931.5,-33.0675,14.6117,-33.0675,-23120.7,10,90,363,637,682,2713
522.23,0.133534,0.0482922,-0.00653249,-0.00514945,-0.00653249,-0.168806,-0.0155866,-0.00514945,-0.0155866,0.00167306,-15695.1,37.6808,-8.98213,37.6808,-16257.8,-38.3535,-8.98213,-38.3535,-15814.3,10,2,19,20,638,2714
809.59,0.18836,0.0641622,0.00150388,0.00929808,0.00150388,-0.226997,-0.0330138,0.00929808,-0.0330138,0.0313332,-21364,56.7708,32.6297,56.7708,-22193.4,-77.6071,32.6297,-77.6071,-21449.1,10,19,637,638,670,2715
639.975,0.16253,0.0565519,0.00756686,-0.00755829,0.00756686,-0.191168,-0.0354859,-0.00755829,-0.0354859,0.0290835,-16094.5,-8.57402,-24.4225,-8.57402,-16751.6,-68.1778,-24.4225,-68.1778,-16159,10,152,434,435,439,2716
468.229,0.126631,0.0179587,-0.00912207,-0.0103781,-0.00912207,-0.152774,-0.0224411,-0.0103781,-0.0224411,0.0427456,-12416.9,-33.4087,-22.534,-33.4087,-12841,-6.6494,-22.534,-6.6494,-12347.3,10,6,152,154,399,2717
483.075,0.128623,0.0178124,0.00720543,0.0117963,0.00720543,-0.156519,-0.0263095,0.0117963,-0.0263095,0.039183,-13350.5,30.2963,27.0879,30.2963,-13792.3,-15.6545,27.0879,-15.6545,-13286.2,10,6,14,17,399,2718
837.132,0.178347,0.0517025,0.00677683,0.00567577,0.00677683,-0.231905,-0.0327825,0.00567577,-0.0327825,-0.00187577,-26741.8,39.9364,20.4303,39.9364,-27631.8,-80.7321,20.4303,-80.7321,-26902.1,10,4,5,397,670,2719
745.468,0.161518,0.023129,-0.00707746,-0.0106522,-0.00707746,-0.219668,-0.0259857,-0.0106522,-0.0259857,0.0111336,-25786.6,20.8322,-27.5701,20.8322,-26530.5,-96.8262,-27.5701,-96.8262,-25828.4,10,3,4,90,637,2720
770.025,0.164097,0.0225792,0.00730444,0.00396475,0.00730444,-0.223397,-0.0313971,0.00396475,-0.0313971,0.00934013,-26803.6,-16.3696,7.19189,-16.3696,-27570.2,-110.935,7.19189,-110.935,-26848.8,10,4,90,116,365,2721
807.534,0.183326,0.0288271,-0.00800877,-4.30897e-05,-0.00800877,-0.230914,-0.0130201,-4.30897e-05,-0.0130201,0.0549029,-22947.4,-51.6677,-5.23167,-51.6677,-23698.8,-79.1211,-5.23167,-79.1211,-22873.8,10,90,125,363,365,2722
91.5734,0.0315188,0.0352359,-0.00808287,0.00291684,-0.00808287,-0.0156027,-0.000478895,0.00291684,-0.000478895,0.00117941,1972.53,-13.5616,5.84886,-13.5616,1872.85,-0.704208,5.84886,-0.704208,1906,10,49,685,689,690,2723
327.144,0.0984664,0.0552115,0.0208143,0.0111749,0.0208143,-0.104267,-0.00834231,0.0111749,-0.00834231,0.00474536,-5946.79,13.206,21.7518,13.206,-6310.62,-24.8029,21.7518,-24.8029,-6065.82,10,115,124,125,392,2724
606.75,0.157218,0.0803008,0.0231848,-0.0113321,0.0231848,-0.179768,-0.0126858,-0.0113321,-0.0126858,-0.000671252,-14822.3,0.478506,-34.2047,0.478506,-15501.6,-26.6806,-34.2047,-26.6806,-15034,10,115,155,366,367,2725
529.828,0.132263,0.0320464,-0.00983904,0.0126544,-0.00983904,-0.174107,-0.00601626,0.0126544,-0.00601626,0.0102506,-17182.2,-69.9732,30.9472,-69.9732,-17716.9,-27.4147,30.9472,-27.4147,-17234.1,10,115,116,125,396,2726
38.141,0.0130665,0.0181567,0.00110699,-0.00255695,0.00110699,-0.00202666,0.000237142,-0.00255695,0.000237142,0.000637613,1661.7,2.00943,-4.91554,2.00943,1622.38,0.497766,-4.91554,0.497766,1627.55,10,74,117,386,387,2727
10.5674,0.00353756,0,-0.00258047,0,-0.00258047,0.00258825,-0.000702757,0,-0.000702757,0,254.187,-5.15212,0.0072228,-5.15212,259.287,-1.40311,0.0072228,-1.40311,254.163,10,93,582,636,687,2728
27.4947,0.00933994,0.00908215,-0.00236881,0.00618155,-0.00236881,0.00021903,6.30586e-06,0.00618155,6.30586e-06,0.00222309,1141.83,-4.60092,12.0885,-4.60092,1124.32,0.0565676,12.0885,0.0565676,1128.18,10,107,583,584,683,2729
173.215,0.063481,0.0728448,0.00730812,-0.0229315,0.00730812,-0.0224196,-0.0112462,-0.0229315,-0.0112462,0.0132361,5766.34,5.90627,-44.4559,5.90627,5592.7,-18.2657,-44.4559,-18.2657,5660.67,10,63,150,415,432,2730
148.298,0.0529377,0.0662638,-0.00499778,0.00320396,-0.00499778,-0.0193773,-0.00547731,0.00320396,-0.00547731,-0.0012324,4193.44,-3.54018,7.54171,-3.54018,4032.67,-9.96723,7.54171,-9.96723,4067.24,10,0,50,180,686,2731
208.148,0.0728925,0.0801337,0.00531265,-0.00727325,0.00531265,-0.0403073,-0.010627,-0.00727325,-0.010627,-0.00229644,3080.23,-3.09425,-17.351,-3.09425,2850.44,-19.0324,-17.351,-19.0324,2924.08,10,25,26,114,368,2732
152.306,0.0524142,0.0485594,-0.0199454,0.00539447,-0.0199454,-0.0317678,0.00438622,0.00539447,0.00438622,0.0065323,1989.68,-32.1521,9.99756,-32.1521,1828.26,8.96445,9.99756,8.96445,1905.32,10,100,673,685,686,2733
325.673,0.1057,0.0797583,0.0213718,-0.015924,0.0213718,-0.0899332,-0.0194533,-0.015924,-0.0194533,0.011509,-1428.56,12.8373,-38.3915,12.8373,-1786.18,-36.0499,-38.3915,-36.0499,-1570.87,10,114,155,367,436,2734
0.00310375,1.03458e-06,0,5.83744e-07,-3.17637e-22,5.83744e-07,-7.0663e-07,-5.43666e-07,-3.17637e-22,-5.43666e-07,0,-0.0699566,0.00116749,-1.26945e-09,0.00116749,-0.0713698,-0.00108733,-1.26945e-09,-0.00108733,-0.0699566,10,163,184,185,410,2735
127.509,0.0452875,0.0535299,0.00011577,-0.00742888,0.00011577,-0.0203253,-0.00982807,-0.00742888,-0.00982807,0.00833543,3869.72,-4.48836,-15.4036,-4.48836,3731.63,-17.8877,-15.4036,-17.8877,3785.67,10,25,175,369,433,2736
86.2822,0.0300304,0.0309222,0.00478253,-0.0141502,0.00478253,-0.00998145,-0.00545637,-0.0141502,-0.00545637,0.0065136,2625.36,7.38068,-27.5549,7.38068,2546.41,-9.66315,-27.5549,-9.66315,2578.92,10,175,189,370,433,2737
43.5837,0.0149905,0.0109397,0.00266805,-0.011127,0.00266805,0.000606586,-0.00310914,-0.011127,-0.00310914,0.00770832,1882.99,5.07263,-21.6199,5.07263,1863.19,-6.01274,-21.6199,-6.01274,1877.29,10,62,163,189,422,2738
120.852,0.0426756,0.0245499,0.00258513,-0.025487,0.00258513,-0.0150866,-0.0115681,-0.025487,-0.0115681,0.0281656,3471.2,2.45379,-48.4219,2.45379,3396.6,-19.5101,-48.4219,-19.5101,3481.19,10,147,420,425,426,2739
35.9259,0.012337,0.00338093,-0.000716253,0.00716313,-0.000716253,-3.8912e-05,-0.0012641,0.00716313,-0.0012641,0.0148397,1774.11,-1.36748,13.9337,-1.36748,1767.43,-2.39944,13.9337,-2.39944,1796.3,10,209,216,629,654,2740
68.6968,0.0240068,0.0135852,-0.00429777,0.0172671,-0.00429777,-0.000164397,-0.00627661,0.0172671,-0.00627661,0.0160314,2832.45,-7.56207,33.0611,-7.56207,2806.26,-11.4683,33.0611,-11.4683,2838.32,10,209,629,649,650,2741
138.419,0.0470895,0.0430486,-0.0189883,-0.00408263,-0.0189883,-0.0282565,-0.000187346,-0.00408263,-0.000187346,0.000753133,1295.42,-31.9808,-7.71285,-31.9808,1150.57,-1.26133,-7.71285,-1.26133,1209.82,10,96,100,673,685,2742
57.4071,0.019949,0.0081718,-0.00229178,0.0117597,-0.00229178,-0.00274118,-0.00465749,0.0117597,-0.00465749,0.0203333,2488.48,-4.1199,22.5397,-4.1199,2467.51,-8.51461,22.5397,-8.51461,2512.24,10,11,210,654,655,2743
28.4674,0.00963226,0.0102647,-0.00463223,0.00269642,-0.00463223,-0.000361031,0.00132967,0.00269642,0.00132967,-0.000756738,909.56,-9.00365,5.3057,-9.00365,888.449,2.65272,5.3057,2.65272,887.718,10,83,84,105,671,2744
75.7644,0.0265404,0.0172669,-0.00195731,0.0197838,-0.00195731,-0.00123015,-0.00556323,0.0197838,-0.00556323,0.0150715,2981.96,-3.17428,37.763,-3.17428,2947.39,-10.2214,37.763,-10.2214,2979.59,10,11,12,209,650,2745
74.8535,0.0261362,0.0258468,-0.00173346,0.016358,-0.00173346,-0.00327658,-0.00470336,0.016358,-0.00470336,0.00651929,2805.29,-2.50731,31.6886,-2.50731,2750.08,-8.59375,31.6886,-8.59375,2769.68,10,12,13,219,644,2746
162.157,0.0581716,0.0642887,-0.0069797,0.015474,-0.0069797,-0.0248574,-0.0152513,0.015474,-0.0152513,0.0101613,4481.39,-5.8632,32.2103,-5.8632,4315.39,-26.9867,32.2103,-26.9867,4383.33,10,13,16,661,665,2747
113.485,0.0396716,0.0334565,-0.00654661,0.0202141,-0.00654661,-0.0149916,-0.0117577,0.0202141,-0.0117577,0.0126348,2888.43,-9.89149,39.7541,-9.89149,2796.1,-21.3472,39.7541,-21.3472,2851.36,10,11,12,645,650,2748
111.104,0.0383746,0.00460219,-0.00129488,-0.0109338,-0.00129488,-0.0194916,-0.0115689,-0.0109338,-0.0115689,0.0385204,2118.87,-3.38621,-20.699,-3.38621,2071.76,-19.6086,-20.699,-19.6086,2185.9,10,167,423,427,428,2749
104.098,0.0362769,0.00607643,0.00143771,-0.00974398,0.00143771,-0.0167,-0.00960695,-0.00974398,-0.00960695,0.0394546,2651.99,2.02791,-18.329,2.02791,2607.81,-15.7259,-18.329,-15.7259,2717.14,10,167,423,424,428,2750
92.6102,0.0320192,0.00954742,-0.00526159,0.0128327,-0.00526159,-0.0144994,-0.0105474,0.0128327,-0.0105474,0.0285442,2188.91,-9.33117,24.8429,-9.33117,2141.87,-18.7377,24.8429,-18.7377,2226.64,10,254,655,656,658,2751
139.945,0.0495161,0.0110996,-0.00066579,-0.0244148,-0.00066579,-0.0197627,-0.00880156,-0.0244148,-0.00880156,0.0483971,3563.65,-3.65507,-45.5913,-3.65507,3505.44,-11.8043,-45.5913,-11.8043,3636.28,10,148,149,170,419,2752
179.921,0.0618433,0.0131177,-0.00165353,0.0186874,-0.00165353,-0.0422225,-0.0147315,0.0186874,-0.0147315,0.0532821,1845.08,0.146409,35.9302,0.146409,1736.22,-19.9537,35.9302,-19.9537,1926.36,10,257,653,656,657,2753
63.7629,0.022348,0.000850852,0.000263347,0.00549618,0.000263347,-0.00146316,-0.000711303,0.00549618,-0.000711303,0.0317463,2982.88,0.578062,10.3483,0.578062,2978.5,-0.913799,10.3483,-0.913799,3041.73,10,160,212,255,659,2754
118.902,0.0407391,0.00342436,0.0024915,0.010324,0.0024915,-0.0242222,-0.00999813,0.010324,-0.00999813,0.0398281,1638.57,5.83494,19.7702,5.83494,1584.33,-16.3899,19.7702,-16.3899,1710.7,10,255,657,658,659,2755
107.577,0.0380711,0.0010374,-0.000770453,-0.00748016,-0.000770453,-0.011667,-0.00219803,-0.00748016,-0.00219803,0.0490541,3557.9,-1.87102,-13.8608,-1.87102,3533.92,-1.38582,-13.8608,-1.38582,3648.62,10,161,162,167,423,2756
94.3709,0.0332996,0.00687425,0.0010551,0.0168511,0.0010551,-0.00809918,-0.00312239,0.0168511,-0.00312239,0.0373655,3394.59,2.77833,31.5359,2.77833,3366.52,-4.1546,31.5359,-4.1546,3453.06,10,255,256,257,656,2757
84.4227,0.0299773,0.00851859,-0.00359125,0.0136114,-0.00359125,-0.00576839,-0.00166244,0.0136114,-0.00166244,0.0369567,3772.32,-6.26666,25.5462,-6.26666,3745.47,-1.79602,25.5462,-1.79602,3825.99,10,254,256,655,656,2758
46.6387,0.0161624,-0.00011551,-3.70235e-05,-0.00125785,-3.70235e-05,4.52308e-06,-0.00121029,-0.00125785,-0.00121029,0.0239986,2309.25,-0.0786914,-2.32386,-0.0786914,2309.49,-2.27552,-2.32386,-2.27552,2355.66,10,159,160,166,404,2759
60.0825,0.0209635,0.000400074,-0.000240407,-0.00380181,-0.000240407,-0.00193003,-0.00134435,-0.00380181,-0.00134435,0.0298254,2714.43,-0.521874,-7.17404,-0.521874,2709.97,-2.1,-7.17404,-2.1,2770.74,10,160,161,167,427,2760
175.932,0.0613727,0.00315687,-0.00191327,0.0143953,-0.00191327,-0.0355036,-0.00517616,0.0143953,-0.00517616,0.065318,2705.16,-1.55275,27.8117,-1.55275,2630.62,-0.367351,27.8117,-0.367351,2824.27,10,8,162,257,653,2761
198.865,0.0704803,0.0344506,0.011408,-0.0238629,0.011408,-0.0432325,-0.0201537,-0.0238629,-0.0201537,0.053346,3704.07,14.9882,-46.023,14.9882,3554.38,-28.6283,-46.023,-28.6283,3744.36,10,148,153,413,414,2762
26.2632,0.00883255,0.000118614,-0.000272558,0.00165525,-0.000272558,0.000107768,-0.00685308,0.00165525,-0.00685308,0.00523129,528.042,-0.49833,3.27322,-0.49833,527.846,-13.5146,3.27322,-13.5146,538.38,10,159,166,404,406,2763
92.8806,0.0319707,0.00606143,-0.00194842,0.0140319,-0.00194842,-0.0141841,-0.0099417,0.0140319,-0.0099417,0.0290111,1918.69,-2.78067,27.1015,-2.78067,1879.05,-17.467,27.1015,-17.467,1964.49,10,254,255,656,658,2764
49.4991,0.0172093,0.00273274,0.00266597,0.00652313,0.00266597,3.12738e-05,-0.00356446,0.00652313,-0.00356446,0.0231489,2506.93,5.20645,12.2948,5.20645,2501.9,-6.61813,12.2948,-6.61813,2546.43,10,160,161,404,659,2765
78.4622,0.0266513,0.0249059,0.0121764,-0.00224839,0.0121764,-0.0130645,0.00305951,-0.00224839,0.00305951,0.000553554,1167.84,22.7438,-4.28371,22.7438,1091.94,6.21296,-4.28371,6.21296,1119.26,10,117,382,383,387,2766
25.7811,0.00856916,0,-0.00510474,0,-0.00510474,-0.001605,-0.0053062,0,-0.0053062,0,-169.887,-10.2212,0.108658,-10.2212,-173.428,-10.6246,0.108658,-10.6246,-169.879,10,218,630,631,643,2767
239.887,0.0800419,0.0609994,-0.0276519,0.0173895,-0.0276519,-0.0561633,-0.0174184,0.0173895,-0.0174184,0.00532911,179.066,-40.7278,38.7942,-40.7278,-66.5874,-30.054,38.7942,-30.054,65.5101,10,1,16,665,666,2768
93.8839,0.031018,0.0124901,-0.016107,0.0147838,-0.016107,-0.00997976,0.0098985,0.0147838,0.0098985,-0.00637124,-501.906,-31.697,29.3326,-31.697,-549.112,20.6343,29.3326,20.6343,-541.948,10,104,672,675,676,2769
116.169,0.0407976,0.0492329,-0.00161176,0.00105593,-0.00161176,-0.0177082,-0.00812671,0.00105593,-0.00812671,0.00253755,3193.52,0.960762,3.98247,0.960762,3066.33,-15.2373,3.98247,-15.2373,3105.12,10,0,180,641,686,2770
363.118,0.116847,0.0820132,-0.0270214,-0.00309641,-0.0270214,-0.107446,-0.00461692,-0.00309641,-0.00461692,0.0262074,-1932.85,-26.9515,-4.56161,-26.9515,-2337.37,-12.2451,-4.56161,-12.2451,-2054.87,10,102,639,674,678,2771
56.852,0.0196532,0.0247052,-0.00727552,-0.00197591,-0.00727552,-0.0037457,-0.00205797,-0.00197591,-0.00205797,0.00160584,2210.33,-13.4531,-3.62373,-13.4531,2154.91,-4.0975,-3.62373,-4.0975,2165.42,10,97,105,106,684,2772
40.297,0.0137915,0.0189332,-0.00134838,0.00120727,-0.00134838,-0.00211752,0.00120144,0.00120727,0.00120144,-0.000617555,1604.61,-2.47923,2.30689,-2.47923,1563.58,2.36154,2.30689,2.36154,1566.48,10,91,97,688,689,2773
51.1578,0.0176236,0.0242442,-0.000708961,-0.00167972,-0.000708961,-0.00282911,-0.000407839,-0.00167972,-0.000407839,-0.0010669,2003.65,-1.09708,-3.14761,-1.09708,1951.21,-0.801719,-3.14761,-0.801719,1954.63,10,48,91,97,689,2774
203.731,0.0686743,0.0624832,-0.0179813,0.00197894,-0.0179813,-0.0476037,-0.0124687,0.00197894,-0.0124687,-0.00115552,785.904,-25.9265,6.28724,-25.9265,562.549,-23.7685,6.28724,-23.7685,658.07,10,0,50,640,686,2775
85.6879,0.02991,0.0390238,-0.00186755,-8.54288e-05,-0.00186755,-0.00881028,-0.0029861,-8.54288e-05,-0.0029861,-0.00100416,2812.87,-1.8508,0.414794,-1.8508,2721.31,-5.71375,0.414794,-5.71375,2736.33,10,50,180,182,690,2776
167.772,0.0579271,0.0546939,-0.0153944,0.00889771,-0.0153944,-0.0353551,-0.0130653,0.00889771,-0.0130653,0.00687539,2195.27,-21.2071,19.6359,-21.2071,2016.73,-23.9301,19.6359,-23.9301,2101.93,10,0,641,660,665,2777
185.64,0.0668519,0.0771668,-0.00320024,0.0201167,-0.00320024,-0.0265535,-0.0088478,0.0201167,-0.0088478,0.00277665,4732.07,3.09445,39.7915,3.09445,4540.5,-14.0491,39.7915,-14.0491,4596.72,10,0,13,16,665,2778
182.999,0.0618586,0.0552786,-0.015442,0.00513447,-0.015442,-0.04522,-0.00892996,0.00513447,-0.00892996,0.0040598,937.959,-20.5392,12.7026,-20.5392,734.894,-16.4487,12.7026,-16.4487,835.538,10,0,640,641,686,2779
88.9546,0.0314016,0.0430406,0.00187088,0.00219329,0.00187088,-0.00641702,-0.0017308,0.00219329,-0.0017308,-0.000401162,3488.17,5.08342,4.57071,5.08342,3395.08,-3.16997,4.57071,-3.16997,3406.35,10,180,181,182,690,2780
184.006,0.0630534,0.0552786,-0.0157609,0.00694276,-0.0157609,-0.0425765,-0.0169422,0.00694276,-0.0169422,0.00991786,1747.11,-20.9554,16.3125,-20.9554,1552,-32.3069,16.3125,-32.3069,1657.35,10,0,640,641,665,2781
101.277,0.0352684,0.038597,-0.00173743,0.013963,-0.00173743,-0.0121961,-0.00686973,0.013963,-0.00686973,0.00187813,2671.43,-0.875213,27.7827,-0.875213,2574.39,-12.3617,27.7827,-12.3617,2602.44,10,0,13,180,660,2782
84.404,0.0295523,0.0392629,0.00323925,0.000827078,0.00323925,-0.00744173,-0.00239676,0.000827078,-0.00239676,-0.000770539,2995.45,4.61519,1.07729,4.61519,2906.13,-4.61468,1.07729,-4.61468,2919.01,10,26,175,176,388,2783
41.194,0.0138598,0.0100628,0.00827731,-0.00314867,0.00827731,-0.00232215,0.00404521,-0.00314867,0.00404521,-0.00185639,573.138,16.2181,-6.20698,16.2181,548.172,8.06326,-6.20698,8.06326,549.262,10,109,128,377,389,2784
350.389,0.111266,0.0848338,0.0270701,0.00497286,0.0270701,-0.0965922,-0.0166449,0.00497286,-0.0166449,0.00217094,-2710.15,27.6374,5.93469,27.6374,-3105.01,-32.1222,5.93469,-32.1222,-2889.08,10,114,124,367,380,2785
52.0707,0.0179124,0.0217233,-0.00178039,-0.0073885,-0.00178039,-0.00381638,-0.00131129,-0.0073885,-0.00131129,0.0015859,1913.42,-3.95472,-14.5038,-3.95472,1864.17,-2.36332,-14.5038,-2.36332,1874.73,10,174,175,189,370,2786
188,0.0653996,0.0617165,0.0177534,-0.00879091,0.0177534,-0.0414688,-0.0123493,-0.00879091,-0.0123493,0.0119052,2653.41,22.9776,-19.2517,22.9776,2449.68,-22.3572,-19.2517,-22.3572,2555.95,10,25,369,432,437,2787
87.6402,0.0310074,0.0433043,-0.000386961,-0.00139172,-0.000386961,-0.00542448,-0.0013729,-0.00139172,-0.0013729,-0.000308654,3622.79,-2.12195,-2.97597,-2.12195,3531.08,-2.53498,-2.97597,-2.53498,3540.7,10,174,175,176,388,2788
139.836,0.0495325,0.0109014,-0.000636392,-0.0242553,-0.000636392,-0.0195335,-0.00839829,-0.0242553,-0.00839829,0.0490491,3629.42,-3.5472,-45.2437,-3.5472,3572.09,-11.0369,-45.2437,-11.0369,3703.44,10,149,169,170,419,2789
268.037,0.0844606,0.0254415,0.00125341,-0.0278485,0.00125341,-0.080224,-0.0241262,-0.0278485,-0.0241262,0.0326016,-3295.12,-11.8276,-60.4287,-11.8276,-3521.78,-33.507,-60.4287,-33.507,-3272.17,10,151,152,153,430,2790
69.56,0.0244415,0.00658661,-0.000355739,-0.0154287,-0.000355739,-0.000750866,-0.00182081,-0.0154287,-0.00182081,0.0269862,3143.54,-0.869643,-28.9774,-0.869643,3130.04,-3.13161,-28.9774,-3.13161,3183.17,10,164,165,168,425,2791
60.8341,0.0208355,0.00420954,0.00381492,-0.0106104,0.00381492,-0.00475011,-0.00852493,-0.0106104,-0.00852493,0.0175379,1618.83,7.11885,-20.5923,7.11885,1601.29,-16.2065,-20.5923,-16.2065,1645.53,10,163,164,425,426,2792
110.919,0.0389863,0.0286087,0.0121918,-0.0202506,0.0121918,-0.0138126,-0.00905933,-0.0202506,-0.00905933,0.0195546,3203.97,20.9974,-39.1452,20.9974,3121.96,-15.6575,-39.1452,-15.6575,3187.53,10,62,415,416,422,2793
92.9238,0.0327811,0.00489346,-0.00144725,-0.015399,-0.00144725,-0.00707828,-0.00425237,-0.015399,-0.00425237,0.0381306,3376.66,-3.40121,-28.6498,-3.40121,3354.27,-6.4104,-28.6498,-6.4104,3440.55,10,167,169,170,424,2794
233.579,0.0769338,0.0543295,-0.0250311,0.00500514,-0.0250311,-0.0648928,0.0113123,0.00500514,0.0113123,0.0125543,-601.901,-37.4547,8.36766,-37.4547,-852.7,23.613,8.36766,23.613,-691.348,10,99,673,674,677,2795
105.333,0.0373018,0.0172063,0.000281264,-0.0249996,0.000281264,-0.00777555,-0.00779019,-0.0249996,-0.00779019,0.02932,3627.1,-0.934718,-46.9571,-0.934718,3580.63,-12.948,-46.9571,-12.948,3652.39,10,147,148,170,420,2796
49.0606,0.0169711,0.0022869,-0.000182615,-0.00817553,-0.000182615,-0.00086476,-0.00196911,-0.00817553,-0.00196911,0.0214076,2206.67,-0.449139,-15.6045,-0.449139,2200.7,-3.56999,-15.6045,-3.56999,2243.82,10,165,167,168,428,2797
65.4406,0.0227539,0.00717745,0.000430294,-0.0154785,0.000430294,-0.00138474,-0.0051894,-0.0154785,-0.0051894,0.0204984,2520.54,0.464408,-29.4645,0.464408,2504.54,-9.55194,-29.4645,-9.55194,2547.35,10,147,168,170,425,2798
73.7106,0.025593,0.0134379,-0.00499882,0.0168032,-0.00499882,-0.00348798,-0.00861069,0.0168032,-0.00861069,0.0156734,2448.17,-8.9599,32.4075,-8.9599,2415.66,-16.0506,32.4075,-16.0506,2453.73,10,12,209,649,650,2799
113.741,0.0396378,0.0435127,-0.00492242,0.00588247,-0.00492242,-0.0208047,-0.00880708,0.00588247,-0.00880708,0.00652084,2724.62,-5.68742,12.4561,-5.68742,2600.82,-16.3615,12.4561,-16.3615,2654.03,10,180,641,642,660,2800
41.8213,0.0139229,0.00734905,-0.00409461,0.00428605,-0.00409461,-9.32365e-05,-0.00731321,0.00428605,-0.00731321,-0.00771928,-60.2735,-7.94551,8.96268,-7.94551,-75.3735,-14.7868,8.96268,-14.7868,-89.9975,10,210,216,628,654,2801
109.549,0.0389979,0.0175784,-0.00130934,0.0262475,-0.00130934,-0.00654603,-0.00928176,0.0262475,-0.00928176,0.0311091,3938.01,-0.963703,49.0459,-0.963703,3893.36,-15.6864,49.0459,-15.6864,3966.16,10,10,11,256,651,2802
55.1475,0.018949,0.0108647,-0.00509431,0.0121533,-0.00509431,0.00123868,-0.00850391,0.0121533,-0.00850391,0.00674416,1823.6,-9.49034,23.7785,-9.49034,1804.93,-16.4107,23.7785,-16.4107,1816.61,10,209,219,629,649,2803
339.086,0.108059,0.0821976,-0.0254184,-0.00457568,-0.0254184,-0.0935458,-0.018584,-0.00457568,-0.018584,0.00276632,-2505.35,-25.9113,-4.5945,-25.9113,-2885.89,-36.1268,-4.5945,-36.1268,-2676.18,10,1,102,639,674,2804
47.8542,0.0165741,0.00802924,-0.00421185,0.00949008,-0.00421185,-0.000593744,-0.00532595,0.00949008,-0.00532595,0.0161196,2290.4,-7.76584,18.3175,-7.76584,2273.63,-9.83978,18.3175,-9.83978,2306.53,10,210,628,654,655,2805
10.5674,0.00353756,0,-0.00258047,0,-0.00258047,0.00258825,-0.000702757,0,-0.000702757,0,254.187,-5.15212,0.0072228,-5.15212,259.287,-1.40311,0.0072228,-1.40311,254.163,10,92,635,636,687,2806
52.122,0.0177462,0.0199261,0.00155719,-0.00540849,0.00155719,-0.00666253,-0.00360613,-0.00540849,-0.00360613,-2.60971e-05,1298,2.37115,-10.8916,2.37115,1245.88,-6.90484,-10.8916,-6.90484,1259.15,10,174,370,371,372,2807
193.019,0.0664247,0.0635444,0.0216671,-0.00175973,0.0216671,-0.0422668,-0.00499171,-0.00175973,-0.00499171,0.00446584,2017.17,31.929,-5.3666,31.929,1805.08,-8.96786,-5.3666,-8.96786,1899.56,10,26,368,369,384,2808
115.613,0.0415362,0.0453212,0.0032044,-0.0191573,0.0032044,-0.0105366,-0.0114515,-0.0191573,-0.0114515,0.0133263,4536.14,2.93605,-36.3889,2.93605,4431.79,-19.7146,-36.3889,-19.7146,4478.03,10,62,63,415,433,2809
320.441,0.115488,0.124491,0.00698292,-0.0277743,0.00698292,-0.0607473,-0.0177927,-0.0277743,-0.0177927,0.00247225,4857.33,-17.9359,-59.3585,-17.9359,4517.16,-25.8392,-59.3585,-25.8392,4638.69,10,25,114,150,436,2810
138.874,0.0492174,0.0166045,0.00583106,-0.0211386,0.00583106,-0.0227948,-0.0106896,-0.0211386,-0.0106896,0.0469123,3671.14,8.61496,-39.7083,8.61496,3596.22,-15.5917,-39.7083,-15.5917,3730.61,10,170,419,420,425,2811
219.016,0.0739258,0.0199602,-0.00587413,0.0286856,-0.00587413,-0.0535167,-0.0209785,0.0286856,-0.0209785,0.0492124,777.596,-4.15801,57.4908,-4.15801,629.765,-31.318,57.4908,-31.318,840.31,10,9,10,647,652,2812
346.61,0.110375,0.0801217,0.0179422,-0.00620807,0.0179422,-0.103989,-0.00655776,-0.00620807,-0.00655776,0.0159618,-2556.92,1.85814,-16.5511,1.85814,-2948.59,-16.6469,-16.5511,-16.6469,-2694.27,10,115,124,367,392,2813
160.769,0.050053,0.0164376,-0.00159644,0.00540078,-0.00159644,-0.0607332,0.00762768,0.00540078,0.00762768,0.00786439,-4023.47,-9.01539,12.0254,-9.01539,-4188.35,13.0292,12.0254,13.0292,-4040.55,10,119,128,129,394,2814
28.5776,0.00963417,0.00789173,-0.00544165,0.00386516,-0.00544165,-0.000163603,0.00127105,0.00386516,0.00127105,-0.000791294,687.153,-10.7061,7.66872,-10.7061,671.153,2.52633,7.66872,2.52633,669.919,10,83,105,107,683,2815
86.5075,0.0298499,0.0348648,0.00783271,-0.00291144,0.00783271,-0.012022,0.000412304,-0.00291144,0.000412304,-0.000662266,2120.56,13.4747,-5.78597,13.4747,2028.97,0.938296,-5.78597,0.938296,2051.45,10,27,176,387,388,2816
196.544,0.0677396,0.0612733,0.016443,-0.00976754,0.016443,-0.0453414,-0.0151936,-0.00976754,-0.0151936,0.0110638,2100.66,20.2999,-21.4806,20.2999,1889.04,-28.1351,-21.4806,-28.1351,2001.76,10,25,368,369,437,2817
267.541,0.0846611,0.049095,0.040013,0.00111184,0.040013,-0.0609468,-0.0272902,0.00111184,-0.0272902,-0.00789629,-2985.56,71.6226,-3.17391,71.6226,-3233.63,-57.7361,-3.17391,-57.7361,-3112.22,10,25,150,436,437,2818
35.939,0.0123453,0.00164529,0.000963973,-0.00532842,0.000963973,0.000532558,-0.00293936,-0.00532842,-0.00293936,0.0161919,1789.05,1.86338,-10.303,1.86338,1786.92,-5.70798,-10.303,-5.70798,1817.34,10,163,185,410,426,2819
670.718,0.152413,0.0215551,0.00767586,-0.00771055,0.00767586,-0.206745,-0.0159488,-0.00771055,-0.0159488,0.0172134,-22886.2,-7.25886,-24.1759,-7.25886,-23560.5,-3.24354,-24.1759,-3.24354,-22896.3,10,5,152,156,438,2820
199.287,0.0685082,0.0616833,0.0172459,-0.00973837,0.0172459,-0.0450186,-0.0167728,-0.00973837,-0.0167728,0.00891745,1948.79,21.6331,-22.0013,21.6331,1735.83,-30.7662,-22.0013,-30.7662,1845.01,10,25,369,432,433,2821
305.394,0.091793,0.0457951,-0.0198917,-0.00976111,-0.0198917,-0.100551,-0.00802615,-0.00976111,-0.00802615,0.00768371,-6048.53,-15.233,-19.2937,-15.233,-6383.2,-23.4787,-19.2937,-23.4787,-6139.73,10,2,101,102,678,2822
85.8889,0.0292616,0.0315118,-0.00846358,-0.00143278,-0.00846358,-0.0139628,-0.00205717,-0.00143278,-0.00205717,-0.00313527,1358.58,-14.9006,-2.48247,-14.9006,1268.41,-4.11166,-2.48247,-4.11166,1290.18,10,49,97,685,689,2823
531.287,0.138105,0.0546948,-0.0098715,0.000405897,-0.0098715,-0.168997,-0.0186592,0.000405897,-0.0186592,0.00647727,-14693.8,27.7918,6.02847,27.7918,-15267.3,-46.0902,6.02847,-46.0902,-14816.8,10,2,3,19,638,2824
195.78,0.0684124,0.0751125,-0.00359399,0.00765208,-0.00359399,-0.0375902,-0.0107998,0.00765208,-0.0107998,-0.00221131,2942.07,4.79105,17.824,4.79105,2727.08,-19.3719,17.824,-19.3719,2795.63,10,0,1,50,640,2825
161.905,0.0507154,0.018618,-0.000697469,-0.00654597,-0.000697469,-0.0595701,0.00914364,-0.00654597,0.00914364,0.00818137,-3656.08,4.54535,-14.6442,4.54535,-3822.83,15.9555,-14.6442,15.9555,-3677.07,10,95,103,104,680,2826
220.301,0.0769332,0.0836888,-0.0118196,-0.00203241,-0.0118196,-0.0443669,-0.00545803,-0.00203241,-0.00545803,-0.00264458,2922.5,-7.52215,-2.04918,-7.52215,2674.33,-10.6495,-2.04918,-10.6495,2755.79,10,50,100,102,674,2827
316.841,0.102848,0.0767457,-0.0207532,0.0131988,-0.0207532,-0.0873735,-0.0224462,0.0131988,-0.0224462,0.0111882,-1425.98,-13.8555,33.1483,-13.8555,-1771.85,-42.763,33.1483,-42.763,-1562.66,10,1,20,639,666,2828
383.765,0.118838,0.0647666,-0.0285629,0.0162925,-0.0285629,-0.113984,-0.0239842,0.0162925,-0.0239842,0.0287004,-4247.85,-37.3573,40.8597,-37.3573,-4646.53,-36.0773,40.8597,-36.0773,-4324.84,10,15,662,666,667,2829
97.9207,0.0338511,0.0243519,-0.00895523,0.01822,-0.00895523,-0.0125534,-0.00973727,0.01822,-0.00973727,0.011885,2210.22,-15.5406,35.8123,-15.5406,2137.98,-17.6289,35.8123,-17.6289,2187.17,10,12,13,644,645,2830
0.00315622,1.05207e-06,-7.17307e-08,-5.38529e-07,-2.73666e-08,-5.38529e-07,-6.02364e-07,-5.8066e-07,-2.73666e-08,-5.8066e-07,2.91811e-07,-0.0379898,-0.00107706,-5.47322e-05,-0.00107706,-0.039051,-0.00116132,-5.47322e-05,-0.00116132,-0.0372627,10,209,216,219,629,2831
72.066,0.0248984,0.0143286,-0.00418693,0.016144,-0.00418693,-0.00242094,-0.0104543,0.016144,-0.0104543,0.0106533,2155.73,-7.35262,31.427,-7.35262,2123.42,-19.7786,31.427,-19.7786,2150.16,10,209,629,650,654,2832
50.813,0.0173341,0.0200655,-0.0023662,0.00505836,-0.0023662,-0.00565325,-0.00337284,0.00505836,-0.00337284,-2.44188e-05,1413.32,-4.01243,10.1692,-4.01243,1362.93,-6.46758,10.1692,-6.46758,1374.21,10,181,631,632,642,2833
114.792,0.0398386,0.0441296,-0.00532982,0.00531388,-0.00532982,-0.0210772,-0.00707841,0.00531388,-0.00707841,0.00366411,2479.83,-6.5191,11.5013,-6.5191,2353.72,-13.1132,11.5013,-13.1132,2402.27,10,180,641,642,690,2834
297.962,0.0945049,0.0698921,-0.0159,0.00477951,-0.0159,-0.0864148,-0.0169361,0.00477951,-0.0169361,0.000891997,-2811.9,-3.70038,15.5886,-3.70038,-3147.44,-32.2266,15.5886,-32.2266,-2958.43,10,1,2,20,639,2835
61.7854,0.0213547,0.0184085,-0.00455804,0.0132406,-0.00455804,-0.00362118,-0.00495527,0.0132406,-0.00495527,0.00776709,2186.88,-8.1068,25.8177,-8.1068,2144.19,-9.16022,25.8177,-9.16022,2166.95,10,219,630,643,644,2836
202.228,0.0687518,0.0207671,-0.00354977,0.0300657,-0.00354977,-0.0486525,-0.0140248,0.0300657,-0.0140248,0.0467307,1206.73,0.69481,59.3574,0.69481,1069.13,-16.3219,59.3574,-16.3219,1261.73,10,9,10,17,647,2837
218.074,0.0763036,0.0827664,-0.0113039,-0.00635696,-0.0113039,-0.043426,-0.00815985,-0.00635696,-0.00815985,-0.00159774,3036.32,-6.85817,-9.39957,-6.85817,2792.33,-16.523,-9.39957,-16.523,2873.34,10,1,50,102,674,2838
150.713,0.0535991,0.0130303,-0.000279751,0.026867,-0.000279751,-0.0214677,-0.00925084,0.026867,-0.00925084,0.0518962,3870.46,2.34077,50.0818,2.34077,3805.53,-11.7964,50.0818,-11.7964,3945.67,10,10,256,257,652,2839
222.217,0.0779532,0.0082799,0.00502932,0.00271137,0.00502932,-0.0513105,-0.0027337,0.00271137,-0.0027337,0.0828349,3044.57,10.4375,4.12153,10.4375,2931.95,11.2759,4.12153,11.2759,3186.02,10,8,162,401,418,2840
245.769,0.0797298,0.00327718,-0.00331645,0.0121234,-0.00331645,-0.071079,-0.0143531,0.0121234,-0.0143531,0.0613056,-1611.67,-2.31024,25.0876,-2.31024,-1767.3,-10.4968,25.0876,-10.4968,-1489.48,10,8,9,17,648,2841
93.3716,0.0329767,0.00717167,0.00151863,0.0172466,0.00151863,-0.00742345,-0.00229254,0.0172466,-0.00229254,0.0369147,3448.76,3.61861,32.2094,3.61861,3421.55,-2.69319,32.2094,-2.69319,3505.8,10,254,255,256,656,2842
160.505,0.055616,0.00187459,-0.000500487,-0.0106737,-0.000500487,-0.0332903,-0.00436678,-0.0106737,-0.00436678,0.0593415,2303.72,-2.40164,-20.3083,-2.40164,2235.8,-0.353587,-20.3083,-0.353587,2414.84,10,8,149,169,418,2843
199.371,0.0681017,0.0190565,0.00667495,-0.0284485,0.00667495,-0.0435068,-0.0227064,-0.0284485,-0.0227064,0.0460085,1484.47,6.31963,-56.4732,6.31963,1359.04,-34.7823,-56.4732,-34.7823,1542.72,10,148,149,154,413,2844
34.5744,0.0116117,0.00208285,-0.00144871,-0.000896213,-0.00144871,-0.00396674,-0.00837264,-0.000896213,-0.00837264,0.00660229,450.458,-2.93583,-1.79363,-2.93583,438.167,-16.4088,-1.79363,-16.4088,459.767,10,166,404,406,427,2845
108.069,0.0382941,0.000970297,-0.000670612,-0.00720442,-0.000670612,-0.0114355,-0.0017864,-0.00720442,-0.0017864,0.0496985,3633.84,-1.65902,-13.3525,-1.65902,3610.48,-0.611487,-13.3525,-0.611487,3725.72,10,162,167,169,423,2846
160.671,0.0557003,0.00183958,-0.000445991,-0.0105891,-0.000445991,-0.0332146,-0.00422527,-0.0105891,-0.00422527,0.0596021,2331.87,-2.28117,-20.1503,-2.28117,2264.21,-0.0655739,-20.1503,-0.0655739,2443.47,10,8,162,169,418,2847
28.4743,0.00961819,0.0080934,0.00568708,-0.00346305,0.00568708,0.000636432,0.00170156,-0.00346305,0.00170156,-0.000609939,804.127,11.1841,-6.85226,11.1841,789.363,3.36646,-6.85226,3.36646,786.886,10,110,127,130,381,2848
160.565,0.0561472,0.0628531,-0.00969505,-0.0073382,-0.00969505,-0.0237234,-0.0114894,-0.0073382,-0.0114894,-0.00557457,2964.51,-11.7093,-10.7685,-11.7093,2796.79,-22.7213,-10.7685,-22.7213,2831.91,10,49,50,686,690,2849
61.8921,0.0211922,0.0219076,-0.0100862,-0.00359553,-0.0100862,-0.00606613,-0.00326512,-0.00359553,-0.00326512,0.0010187,1637.91,-19.1176,-6.86628,-19.1176,1582.76,-6.5211,-6.86628,-6.5211,1596.77,10,97,106,684,688,2850
325.585,0.10481,0.0771484,-0.0245311,0.00347276,-0.0245311,-0.092969,-0.0159552,0.00347276,-0.0159552,0.0122481,-1917.53,-23.299,12.7594,-23.299,-2281.51,-29.4518,12.7594,-29.4518,-2055.69,10,1,639,640,674,2851
150.761,0.0531383,0.0327552,-0.0124972,0.0261837,-0.0124972,-0.0254769,-0.0135885,0.0261837,-0.0135885,0.0306723,3376.28,-19.465,50.6442,-19.465,3263.99,-22.2138,50.6442,-22.2138,3374.55,10,11,645,646,650,2852
872.23,0.190703,0.0510592,0.0101622,-0.00451371,0.0101622,-0.241872,-0.0182562,-0.00451371,-0.0182562,0.031479,-25173.3,50.9173,-12.6071,50.9173,-26063,-54.5041,-12.6071,-54.5041,-25231,10,4,397,637,670,2853
354.492,0.103706,0.0429613,-0.00832803,0.020278,-0.00832803,-0.113486,-0.0268547,0.020278,-0.0268547,0.0120307,-7670.36,9.674,50.6681,9.674,-8032.69,-43.4507,50.6681,-43.4507,-7735.09,10,14,19,20,667,2854
511.126,0.137934,0.047878,-0.00495681,0.011767,-0.00495681,-0.161894,-0.0280915,0.011767,-0.0280915,0.0263466,-12477.5,35.6815,34.8368,35.6815,-12993.6,-57.4661,34.8368,-57.4661,-12525.5,10,19,20,667,669,2855
239.101,0.0810495,0.0682294,-0.0182278,0.020819,-0.0182278,-0.0554702,-0.0183176,0.020819,-0.0183176,0.00706286,1127.6,-18.2322,45.1856,-18.2322,876.67,-30.5155,45.1856,-30.5155,1007.37,10,15,16,20,666,2856
299.589,0.0945847,0.0698921,-0.0160422,0.00558584,-0.0160422,-0.0852285,-0.019957,0.00558584,-0.019957,-0.00300075,-3084.65,-4.14978,17.8826,-4.14978,-3419.18,-39.47,17.8826,-39.47,-3240.23,10,1,2,102,639,2857
86.699,0.0298705,0.0342259,-0.00697229,0.0032689,-0.00697229,-0.0140393,-0.000634444,0.0032689,-0.000634444,0.00107595,2029.06,-11.6532,6.51491,-11.6532,1934.71,-0.995464,6.51491,-0.995464,1964.49,10,49,182,689,690,2858
67.9531,0.0232578,0.0261442,-0.00806472,-0.000736704,-0.00806472,-0.00918148,0.00169597,-0.000736704,0.00169597,-0.000223529,1621.27,-14.8175,-1.4659,-14.8175,1551.69,3.32137,-1.4659,3.32137,1569.51,10,97,684,688,689,2859
530.754,0.147892,0.069857,-0.0215788,0.0119615,-0.0215788,-0.161456,-0.0264036,0.0119615,-0.0264036,0.0260708,-10513.5,-11.5889,33.9509,-11.5889,-11077.8,-51.451,33.9509,-51.451,-10619.5,10,20,666,667,669,2860
243.379,0.0772982,0.0323134,-0.00261527,0.0283094,-0.00261527,-0.0712396,-0.0220727,0.0283094,-0.0220727,0.0194594,-2811.41,8.66471,61.5824,8.66471,-3030.87,-33.4517,61.5824,-33.4517,-2830.86,10,14,17,18,663,2861
805.858,0.169282,0.0302978,-0.00910559,0.00974763,-0.00910559,-0.233029,-0.0021755,0.00974763,-0.0021755,0.00782558,-27667,-59.7615,28.3842,-59.7615,-28494.4,-39.0958,28.3842,-39.0958,-27736.9,10,90,123,125,363,2862
0.0027559,9.18633e-07,0,7.3105e-07,0,7.3105e-07,-5.18407e-07,9.43349e-08,0,9.43349e-08,0,-0.0513224,0.0014621,2.75854e-10,0.0014621,-0.0523592,0.00018867,2.75854e-10,0.00018867,-0.0513224,10,28,341,373,374,2863
752.864,0.160632,0.023129,-0.0085954,-0.00204368,-0.0085954,-0.22361,-0.0144578,-0.00204368,-0.0144578,0.00715991,-26725.6,17.1183,-3.72024,17.1183,-27497.3,-48.6254,-3.72024,-48.6254,-26776.5,10,3,4,19,637,2864
669.18,0.164457,0.0468312,-0.0112362,0.00409974,-0.0112362,-0.196906,-0.040924,0.00409974,-0.040924,0.0291002,-18092.5,-39.3352,11.9193,-39.3352,-18763.9,-69.8641,11.9193,-69.8641,-18128.1,10,6,398,434,438,2865
198.922,0.0670444,0.0617323,0.016143,-0.0065425,0.016143,-0.0463302,-0.010785,-0.0065425,-0.010785,-0.00211469,776.818,20.1587,-15.9073,20.1587,557.702,-20.3519,-15.9073,-20.3519,648.823,10,25,26,368,369,2866
96.0379,0.0329257,0.0321789,0.0142323,-0.00204983,0.0142323,-0.0151075,0.00554871,-0.00204983,0.00554871,0.0014949,1733.38,25.7629,-3.69543,25.7629,1639.25,10.9138,-3.69543,10.9138,1672.6,10,118,378,382,383,2867
553.151,0.141056,0.0532779,0.0141776,-0.00325776,0.0141776,-0.174661,-0.0168526,-0.00325776,-0.0168526,0.00498871,-15845.2,-25.3197,-13.6357,-25.3197,-16444,-39.8841,-13.6357,-39.8841,-15971.9,10,115,116,156,366,2868
318.084,0.101638,0.0806947,0.0157717,-0.0109473,0.0157717,-0.0889087,-0.0135972,-0.0109473,-0.0135972,-0.00111913,-2351.36,-0.395811,-27.2282,-0.395811,-2711.39,-23.5839,-27.2282,-23.5839,-2523.24,10,114,115,155,367,2869
118.155,0.0406144,0.0261052,0.0160084,-0.0151308,0.0160084,-0.0186644,-0.0147886,-0.0151308,-0.0147886,0.0135424,1875.66,28.7042,-30.5066,28.7042,1786.39,-27.5574,-30.5066,-27.5574,1852.05,10,62,415,416,433,2870
781.782,0.161975,0.0225792,0.00766052,0.00194527,0.00766052,-0.229184,-0.0141759,0.00194527,-0.0141759,0.0001478,-28529.1,-16.9659,4.25583,-16.9659,-29340.6,-40.1493,4.25583,-40.1493,-28600.9,10,4,5,116,365,2871
23.1967,0.0077477,0.002374,0.00612347,-0.00176281,0.00612347,-0.00175109,0.000345585,-0.00176281,0.000345585,0.000667288,123.667,12.1385,-3.54625,12.1385,115.013,0.745678,-3.54625,0.745678,120.034,10,74,374,386,387,2872
812.313,0.191204,0.0716245,-0.00342954,-0.0131041,-0.00342954,-0.22527,-0.0375619,-0.0131041,-0.0375619,0.0297824,-20643.8,-65.5675,-43.6029,-65.5675,-21479.1,-84.2977,-43.6029,-84.2977,-20750.5,10,156,365,366,438,2873
242.875,0.0816417,0.0259933,0.00582479,-0.0218954,0.00582479,-0.0662099,-0.0214226,-0.0218954,-0.0214226,0.055418,543.302,5.48374,-43.6523,5.48374,357.075,-27.9288,-43.6523,-27.9288,607.767,10,149,412,413,418,2874
541.091,0.142628,0.0507395,0.00842472,-0.00579856,0.00842472,-0.169373,-0.0299118,-0.00579856,-0.0299118,0.0209082,-13875,-36.0566,-22.4781,-36.0566,-14431.2,-63.3734,-22.4781,-63.3734,-13945,10,155,156,366,439,2875
305.871,0.0947908,0.000541737,-0.00767804,-0.0102058,-0.00767804,-0.0936971,-0.0162709,-0.0102058,-0.0162709,0.0642043,-4338.43,-20.6966,-19.363,-20.6966,-4543.43,-5.24103,-19.363,-5.24103,-4196.91,10,7,8,149,400,2876
175.775,0.0612912,0.00320576,-0.0018654,0.0144696,-0.0018654,-0.0355763,-0.0053135,0.0144696,-0.0053135,0.0650618,2679.23,-1.44703,27.9496,-1.44703,2604.4,-0.64675,27.9496,-0.64675,2797.85,10,8,9,257,653,2877
250.167,0.0809808,0.0212886,0.0124221,-0.00760085,0.0124221,-0.0709567,-0.0326577,-0.00760085,-0.0326577,0.0425274,-1703.14,23.9876,-17.5853,23.9876,-1899.96,-55.2731,-17.5853,-55.2731,-1654.21,10,149,400,401,412,2878
483.618,0.128594,0.00804348,0.0112608,0.00556188,0.0112608,-0.157008,-0.0197293,0.00556188,-0.0197293,0.0485408,-13454.6,36.0468,10.9623,36.0468,-13870.9,-1.36356,10.9623,-1.36356,-13347.1,10,6,7,17,399,2879
485.943,0.129706,0.0106661,-0.0146766,-0.0068583,-0.0146766,-0.157005,-0.0197292,-0.0068583,-0.0197292,0.0485402,-13221,-46.3733,-13.1382,-46.3733,-13641,-1.12747,-13.1382,-1.12747,-13119.8,10,6,7,154,399,2880
106.398,0.0379628,0.0189311,-0.00640353,0.0233316,-0.00640353,-0.00677624,-0.0108868,0.0233316,-0.0108868,0.031283,4077.11,-10.5559,43.7407,-10.5559,4028.79,-18.7089,43.7407,-18.7089,4102.39,10,11,650,651,654,2881
149.58,0.0523648,0.0343704,-0.00833591,0.0274989,-0.00833591,-0.0246978,-0.0153705,0.0274989,-0.0153705,0.023996,2975.13,-10.9011,53.7449,-10.9011,2861.27,-25.6922,53.7449,-25.6922,2958.8,10,10,11,18,646,2882
848.196,0.181271,0.0550276,-0.0189725,0.0114064,-0.0189725,-0.231901,-0.0327827,0.0114064,-0.0327827,-0.0018758,-26543.9,-74.4225,38.2878,-74.4225,-27437.9,-82.9881,38.2878,-82.9881,-26711.1,10,4,5,365,397,2883
830.155,0.190204,0.0708631,-0.00026943,-0.00603816,-0.00026943,-0.227168,-0.0422313,-0.00603816,-0.0422313,0.0184036,-22272,-52.9435,-24.4407,-52.9435,-23138.2,-103.882,-24.4407,-103.882,-22415.5,10,156,366,438,439,2884
370.005,0.110606,0.0380834,-0.00599274,0.0173601,-0.00599274,-0.117042,-0.0308771,0.0173601,-0.0308771,0.0353927,-6401.66,0.493493,40.8032,0.493493,-6756.51,-38.9443,40.8032,-38.9443,-6397.64,10,14,17,663,664,2885
839.126,0.189134,0.0639716,-0.00400844,0.00254191,-0.00400844,-0.230444,-0.0397412,0.00254191,-0.0397412,0.0200603,-23282.6,34.4519,14.2105,34.4519,-24154.2,-105.792,14.2105,-105.792,-23407.6,10,19,638,669,670,2886
158.037,0.0546479,0.0518403,0.0209728,-0.00430979,0.0209728,-0.0322396,0.00336932,-0.00430979,0.00336932,0.00697683,2280.4,33.4865,-7.96006,33.4865,2112.08,6.92625,-7.96006,6.92625,2190.76,10,121,379,383,384,2887
64.782,0.0225205,0.00724707,0.000258508,-0.0155499,0.000258508,-0.001274,-0.00466645,-0.0155499,-0.00466645,0.0201841,2509.11,0.160491,-29.6034,0.160491,2493.22,-8.57992,-29.6034,-8.57992,2535.18,10,163,164,168,425,2888
0.00337229,1.1241e-06,0,5.06084e-07,-7.94093e-23,5.06084e-07,-7.61626e-07,-7.05844e-07,-7.94093e-23,-7.05844e-07,0,-0.0754011,0.00101217,-1.42887e-09,0.00101217,-0.0769244,-0.00141169,-1.42887e-09,-0.00141169,-0.0754011,10,164,186,408,409,2889
77.3163,0.0271222,0.018648,0.00168353,-0.0200849,0.00168353,-0.00167447,-0.00528284,-0.0200849,-0.00528284,0.0150398,3068.14,2.59765,-38.3126,2.59765,3030.14,-9.61963,-38.3126,-9.61963,3063.06,10,62,147,163,421,2890
36.0749,0.0123205,0.00381823,0.00176792,-0.00887618,0.00176792,0.000584223,-0.00256876,-0.00887618,-0.00256876,0.0104571,1449.25,3.41385,-17.2427,3.41385,1443.15,-5.0384,-17.2427,-5.0384,1462.65,10,163,164,185,426,2891
29.4197,0.00985396,0,0.00199466,0,0.00199466,0.00304022,-0.00810961,0,-0.00810961,0,286.27,3.98163,-0.0643924,3.98163,292.027,-16.188,-0.0643924,-16.188,286.516,10,185,409,410,426,2892
53.6935,0.0184526,0.0023709,0.00234651,-0.0068648,0.00234651,-0.00213189,-0.00909739,-0.0068648,-0.00909739,0.0186864,1817.74,4.34781,-13.3686,4.34781,1808.61,-17.1646,-13.3686,-17.1646,1849.83,10,164,165,408,425,2893
55.7451,0.0191158,0.00496247,0.00184018,-0.0108591,0.00184018,-0.00208125,-0.00901492,-0.0108591,-0.00901492,0.0147539,1692.58,3.19083,-21.0814,3.19083,1678.75,-17.1223,-21.0814,-17.1223,1712.51,10,164,408,409,425,2894
43.6935,0.0148345,0.00165504,0.00118731,-0.0056184,0.00118731,-0.00234171,-0.00875674,-0.0056184,-0.00875674,0.012074,1094.21,2.1431,-11.024,2.1431,1086.07,-16.8847,-11.024,-16.8847,1115.15,10,165,407,408,428,2895
37.0393,0.0124182,0.000340629,-0.000848875,0.00187806,-0.000848875,-0.00368684,-0.00905194,0.00187806,-0.00905194,0.00705938,344.945,-1.61864,3.76231,-1.61864,336.564,-17.7701,3.76231,-17.7701,358.687,10,212,625,626,659,2896
61.4536,0.021543,0.00131579,5.45509e-05,0.00396484,5.45509e-05,-0.00147861,-0.000792831,0.00396484,-0.000792831,0.031372,2996.07,0.159875,7.5262,0.159875,2990.74,-1.0775,7.5262,-1.0775,3053.25,10,212,255,658,659,2897
70.8247,0.0244632,0.0236061,-0.0044707,0.0119093,-0.0044707,-0.00593565,-0.00794618,0.0119093,-0.00794618,0.00470179,2158.14,-7.7318,23.6674,-7.7318,2101.3,-15.1194,23.6674,-15.1194,2122.88,10,12,219,644,649,2898
29.4462,0.00981153,0,-0.00412903,0,-0.00412903,-9.25536e-05,-0.00742616,0,-0.00742616,0,-23.4914,-8.25936,0.1227,-8.25936,-24.0337,-14.8547,0.1227,-14.8547,-23.3389,10,216,628,629,654,2899
90.0708,0.03082,0.0239752,-0.000438199,0.020018,-0.000438199,-0.00107917,-0.00751334,0.020018,-0.00751334,-0.00570819,1599.4,-0.0605776,40.357,-0.0605776,1552.24,-14.4349,40.357,-14.4349,1545.27,10,11,209,650,654,2900
0.00339447,1.13149e-06,1.18583e-07,-4.85848e-07,-1.04095e-07,-4.85848e-07,-6.96982e-07,-7.10033e-07,-1.04095e-07,-7.10033e-07,6.9491e-08,-0.0501449,-0.000971696,-0.000208189,-0.000971696,-0.0517761,-0.00142007,-0.000208189,-0.00142007,-0.0502431,10,210,211,215,627,2901
54.7875,0.0187899,0.00696649,-0.00253928,0.0111039,-0.00253928,-0.0030191,-0.00799411,0.0111039,-0.00799411,0.0137485,1704.29,-4.53495,21.642,-4.53495,1684.7,-15.1155,21.642,-15.1155,1718.19,10,210,627,628,655,2902
93.1766,0.0292672,0.00624525,-0.00381867,0.00185916,-0.00381867,-0.0277197,0.0183043,0.00185916,0.0183043,-0.0124147,-3516.56,-8.05696,3.81538,-8.05696,-3588.66,38.8682,3.81538,38.8682,-3556.17,10,87,103,360,587,2903
101.683,0.0344291,0.0276479,0.0161299,0.00174959,0.0161299,-0.0216765,0.0039867,0.00174959,0.0039867,0.005225,984.922,29.2936,3.92702,29.2936,884.681,7.33093,3.92702,7.33093,939.412,10,119,128,378,390,2904
60.9697,0.0208599,0.0213845,0.0101961,0.00348836,0.0101961,-0.00606976,-0.00268632,0.00348836,-0.00268632,0.00104558,1590.03,19.2766,6.66286,19.2766,1535.7,-5.39342,6.66286,-5.39342,1549.89,10,117,126,382,386,2905
25.8676,0.0086612,-0.000477976,-0.00441508,0.00577989,-0.00441508,0.000478465,-0.000722715,0.00577989,-0.000722715,0.00279913,265.006,-8.78571,11.5678,-8.78571,266.613,-1.32749,11.5678,-1.32749,271.185,10,83,107,584,683,2906
3.708,0.00123561,0,0,0.000663786,0,0,0.000832361,0.000663786,0.000832361,-0.000186648,-18.7058,0.00221073,1.32774,0.00221073,-18.7048,1.66493,1.32774,1.66493,-19.0855,10,82,83,107,584,2907
96.7743,0.0335133,0.0389804,-0.00579141,-0.00444343,-0.00579141,-0.0153544,-0.00356244,-0.00444343,-0.00356244,0.001092,2342.67,-8.7694,-7.9276,-8.7694,2237.14,-7.25001,-7.9276,-7.25001,2269,10,96,97,100,685,2908
33.3859,0.0112347,0.0087029,-0.00673363,0.00345534,-0.00673363,-0.0022077,0.00163593,0.00345534,0.00163593,-0.000604448,580.748,-13.2424,6.86359,-13.2424,558.948,3.27485,6.86359,3.27485,562.193,10,83,105,671,683,2909
24.66,0.00822573,-0.00196439,-0.00589678,0.00342448,-0.00589678,0.00192343,-0.000597417,0.00342448,-0.000597417,0.00055981,37.5005,-11.8236,6.88424,-11.8236,44.95,-1.11623,6.88424,-1.11623,42.3158,10,92,635,687,688,2910
31.6919,0.0107204,0.00968968,-0.00578414,0.00421669,-0.00578414,-0.00127883,-0.000749668,0.00421669,-0.000749668,0.00060568,892.32,-11.4048,8.2506,-11.4048,870.652,-1.43228,8.2506,-1.43228,874.299,10,92,106,687,688,2911
817.346,0.1891,0.0542471,-0.000864465,0.00705531,-0.000864465,-0.23325,-0.00403804,0.00705531,-0.00403804,0.045648,-21728.7,-22.0466,19.2332,-22.0466,-22554.2,-41.4356,19.2332,-41.4356,-21755,10,90,363,364,365,2912
3.708,0.00123561,0,0,0.000663786,0,0,0.000832361,0.000663786,0.000832361,-0.000186648,-18.7058,0.00221073,1.32774,0.00221073,-18.7048,1.66493,1.32774,1.66493,-19.0855,10,82,107,583,584,2913
34.8043,0.0116966,0.00869155,-0.00723727,0.00167405,-0.00723727,-0.0010606,0.00320746,0.00167405,0.00320746,-0.00251626,502.74,-14.1823,3.27174,-14.1823,482.973,6.40649,3.27174,6.40649,480.221,10,84,85,104,675,2914
4.88549,0.00162913,0,0,-0.000951706,0,0,0.00103251,-0.000951706,0.00103251,0.00023701,23.0693,-0.00392906,-1.90312,-0.00392906,23.0699,2.0647,-1.90312,2.0647,23.5316,10,111,130,354,355,2915
4.88549,0.00162913,0,0,-0.000951706,0,0,0.00103251,-0.000951706,0.00103251,0.00023701,23.0693,-0.00392906,-1.90312,-0.00392906,23.0699,2.0647,-1.90312,2.0647,23.5316,10,111,112,130,354,2916
204.651,0.0702145,0.0620116,0.0253954,-0.00060623,0.0253954,-0.0482191,-0.0030029,-0.00060623,-0.0030029,0.0109741,1834.65,38.4211,-2.91363,38.4211,1611.77,-6.02124,-2.91363,-6.02124,1731.26,10,26,368,380,384,2917
11.4406,0.00382518,0,0.00310514,0,0.00310514,0.00185364,-0.000432167,0,-0.000432167,0,181.26,6.20271,-0.0053514,6.20271,184.878,-0.86328,-0.0053514,-0.86328,181.222,10,75,113,376,385,2918
4.62138,0.00153678,4.88819e-06,-0.000501258,0.000603106,-0.000501258,-0.00126347,0.000826891,0.000603106,0.000826891,-0.00016987,-141.824,-1.00179,1.20873,-1.00179,-144.368,1.66046,1.20873,1.66046,-142.18,10,82,93,107,583,2919
25.3601,0.00849806,-0.000362211,0.00419866,-0.00586364,0.00419866,0.00143725,-0.000647688,-0.00586364,-0.000647688,0.00220123,312.745,8.36316,-11.7086,8.36316,316.042,-1.18776,-11.7086,-1.18776,317.499,10,110,130,355,381,2920
139.494,0.048077,0.0483729,-0.0158043,-0.00700821,-0.0158043,-0.0265756,-0.00156856,-0.00700821,-0.00156856,0.00175299,2077.89,-24.9441,-13.2217,-24.9441,1928.68,-4.01224,-13.2217,-4.01224,1985.36,10,96,99,100,673,2921
49.9613,0.0163768,0,0,-0.00818359,0,0,0.0101645,-0.00818359,0.0101645,-0.00962193,-996.177,-0.338357,-16.4774,-0.338357,-996.029,20.4659,-16.4774,20.4659,-1016.71,10,108,357,358,393,2922
84.1327,0.0294605,0.0392088,0.00325402,0.000324784,0.00325402,-0.0074455,-0.00222431,0.000324784,-0.00222431,-0.000654164,3001.78,4.64885,0.164034,4.64885,2912.58,-4.26501,0.164034,-4.26501,2925.7,10,26,27,176,388,2923
124.334,0.0418362,0.0319042,0.0168986,-0.0056434,0.0168986,-0.0268315,0.0115179,-0.0056434,0.0115179,0.00321645,621.969,29.809,-9.97058,29.809,501.637,23.3366,-9.97058,23.3366,562.955,10,119,378,379,390,2924
288.293,0.0912876,0.0522812,0.0317199,-0.00572807,0.0317199,-0.0825228,0.0200906,-0.00572807,0.0200906,0.0130457,-2943.67,53.9844,-10.032,53.9844,-3237.01,45.5164,-10.032,45.5164,-3032.76,10,122,380,391,392,2925
37.5296,0.0126128,0.00871902,0.00821203,0.00374443,0.00821203,-0.00242314,-0.000833619,0.00374443,-0.000833619,-0.00113729,504.084,16.0387,7.25704,16.0387,481.144,-1.8214,7.25704,-1.8214,484.004,10,28,74,374,387,2926
132.779,0.0475742,0.0452103,0.00380388,-0.0280493,0.00380388,-0.0114267,-0.00949837,-0.0280493,-0.00949837,0.0133902,4373.46,3.83892,-53.4142,3.83892,4268.57,-15.9434,-53.4142,-15.9434,4317.36,10,62,147,150,415,2927
41.7934,0.0141974,0.0145516,0.00775212,-0.00121139,0.00775212,-0.00282075,-0.0016035,-0.00121139,-0.0016035,-3.13073e-05,1153.28,14.8614,-2.47196,14.8614,1118.58,-3.13453,-2.47196,-3.13453,1124.39,10,28,373,374,387,2928
11.4406,0.00382518,0,0.00310514,0,0.00310514,0.00185364,-0.000432167,0,-0.000432167,0,181.26,6.20271,-0.0053514,6.20271,184.878,-0.86328,-0.0053514,-0.86328,181.222,10,75,375,376,385,2929
18.1852,0.00613257,0,0.0034172,2.1684e-19,0.0034172,0.00704177,1.59275e-05,2.1684e-19,1.59275e-05,0,690.05,6.80271,0.000215195,6.80271,703.878,0.0317072,0.000215195,0.0317072,690.004,10,74,340,374,375,2930
0,0,0,0,0,0,0,0,0,0,0,0,0,0,0,0,0,0,0,0,10,113,353,354,376,2931
21.6694,0.00727779,0.00339731,-0.00594881,0.000322031,-0.00594881,0.00122482,-0.00111982,0.000322031,-0.00111982,-1.18737e-05,454.831,-11.7684,0.673363,-11.7684,450.114,-2.22425,0.673363,-2.22425,447.869,10,91,634,635,688,2932
13.482,0.00454102,0.00467882,-0.00177043,0.00247465,-0.00177043,0.000603695,-0.00107833,0.00247465,-0.00107833,0.00100462,627.385,-3.51486,4.88561,-3.51486,619.318,-2.13345,4.88561,-2.13345,620.09,10,93,582,583,687,2933
239.427,0.0812469,0.0562755,-0.0292707,0.0181076,-0.0292707,-0.0554248,-0.0228261,0.0181076,-0.0228261,0.0198572,1168.96,-44.0144,40.0352,-44.0144,938.179,-40.6197,40.0352,-40.6197,1096.12,10,16,661,662,666,2934
48.9888,0.0169672,0.00422947,0.00341076,-0.0109082,0.00341076,0.00241657,-0.00476769,-0.0109082,-0.00476769,0.0169326,2283.44,6.23218,-20.9595,6.23218,2279.9,-8.80752,-20.9595,-8.80752,2308.57,10,164,409,425,426,2935
24.8277,0.00824853,0,0,6.21279e-05,0,0,0.00705986,6.21279e-05,0.00705986,-0.00188406,-196.847,0.00176028,0.124421,0.00176028,-196.647,14.1384,0.124421,14.1384,-200.828,10,86,87,108,358,2936
5.59149,0.00185582,-0.00176982,0.00133629,8.14886e-05,0.00133629,-0.000814887,-1.65835e-05,8.14886e-05,-1.65835e-05,6.65614e-06,-259.516,2.68302,0.163012,2.68302,-257.592,-0.0327251,0.163012,-0.0327251,-255.945,10,112,113,130,354,2937
67.1583,0.0220666,0.0108876,0.0105105,-0.00297869,0.0105105,-0.0123587,0.0100049,-0.00297869,0.0100049,-0.00639075,-832.144,21.1988,-6.10755,21.1988,-879.396,20.3282,-6.10755,20.3282,-867.427,10,108,128,389,393,2938
282.528,0.080304,0.0159907,0.00915872,-0.00871495,0.00915872,-0.104971,0.0113083,-0.00871495,0.0113083,0.00720745,-9445.46,37.1758,-20.8018,37.1758,-9724,16.703,-20.8018,16.703,-9460.83,10,94,95,98,681,2939
104.081,0.0354324,0.0284307,-0.0184872,-0.00177415,-0.0184872,-0.0193131,0.00515114,-0.00177415,0.00515114,0.00544803,1307.83,-33.9084,-4.05695,-33.9084,1210.84,9.56916,-4.05695,9.56916,1261.35,10,95,104,672,676,2940
34.7845,0.0115401,0,0,0.00916985,0,0,0.003671,0.00916985,0.003671,-0.00263691,-280.958,0.135289,18.3745,0.135289,-281.242,7.35591,18.3745,7.35591,-286.987,10,84,585,586,675,2941
0,0,0,0,0,0,0,0,0,0,0,0,0,0,0,0,0,0,0,0,10,112,113,353,354,2942
24.8277,0.00824853,0,0,6.21279e-05,0,0,0.00705986,6.21279e-05,0.00705986,-0.00188406,-196.847,0.00176028,0.124421,0.00176028,-196.647,14.1384,0.124421,14.1384,-200.828,10,86,87,358,359,2943
14.1603,0.00473196,-0.00080328,0.00244517,-0.0028104,0.00244517,0.00152874,-0.00121987,-0.0028104,-0.00121987,0.000816781,147.725,4.90025,-5.6201,4.90025,152.294,-2.40357,-5.6201,-2.40357,150.863,10,113,354,376,385,2944
340.603,0.110028,0.0820654,0.0268671,-0.0118495,0.0268671,-0.0933287,-0.0207441,-0.0118495,-0.0207441,0.0113703,-1700.74,25.7892,-29.7578,25.7892,-2075.46,-39.4863,-29.7578,-39.4863,-1851.11,10,114,367,368,436,2945
617.655,0.152721,0.0604805,-0.00801612,0.0170791,-0.00801612,-0.189391,0.00564112,0.0170791,0.00564112,0.00253902,-17684.3,-57.6801,43.1537,-57.6801,-18351.5,7.30137,43.1537,7.30137,-17839.5,10,115,125,392,396,2946
4.88549,0.00162913,0,0,-0.000951706,0,0,0.00103251,-0.000951706,0.00103251,0.00023701,23.0693,-0.00392906,-1.90312,-0.00392906,23.0699,2.0647,-1.90312,2.0647,23.5316,10,110,111,130,355,2947
18.7806,0.006308,0.00447108,-0.00414394,0.00164961,-0.00414394,-0.0017919,0.000136931,0.00164961,0.000136931,0.00195116,460.677,-8.22097,3.29078,-8.22097,448.253,0.289136,3.29078,0.289136,455.674,10,92,106,107,687,2948
24.8277,0.00824853,0,0,6.21279e-05,0,0,0.00705986,6.21279e-05,0.00705986,-0.00188406,-196.847,0.00176028,0.124421,0.00176028,-196.647,14.1384,0.124421,14.1384,-200.828,10,85,86,87,587,2949
614.705,0.150407,0.0278951,-0.00647283,-0.0120164,-0.00647283,-0.19356,-0.000702447,-0.0120164,-0.000702447,0.0336051,-18399.1,8.32854,-32.5975,8.32854,-19003.4,-9.27509,-32.5975,-9.27509,-18384.5,10,90,101,637,682,2950
0,0,0,0,0,0,0,0,0,0,0,0,0,0,0,0,0,0,0,0,10,81,93,582,583,2951
14.4994,0.00486548,0.00299698,-0.00274902,0.002637,-0.00274902,3.44337e-05,-0.000982098,0.002637,-0.000982098,0.00101051,402.08,-5.47087,5.22893,-5.47087,396.195,-1.94783,5.22893,-1.94783,398.108,10,93,107,583,687,2952
207.191,0.0692015,0.0598031,-0.0254108,0.00363407,-0.0254108,-0.0477246,-0.00314967,0.00363407,-0.00314967,-0.00379714,237.604,-39.7463,8.84399,-39.7463,14.0993,-6.12854,8.84399,-6.12854,106.478,10,50,100,674,686,2953
8.03111,0.00267398,-0.00141119,0.000389872,-0.00133792,0.000389872,0.000941645,0.001427,-0.00133792,0.001427,-0.000205513,-70.7367,0.767389,-2.68649,0.767389,-66.0199,2.8515,-2.68649,2.8515,-68.3424,10,48,91,338,634,2954
39.7676,0.0134771,0.0138969,-0.00701476,0.000652607,-0.00701476,-0.00364485,-0.000918906,0.000652607,-0.000918906,-1.77454e-05,1010.83,-13.4508,1.33613,-13.4508,975.784,-1.79934,1.33613,-1.79934,983.199,10,48,633,634,689,2955
37.0631,0.012709,0.00777367,-0.000743173,0.00961187,-0.000743173,-4.20806e-05,-0.0014277,0.00961187,-0.0014277,0.00958101,1696.02,-1.39038,18.6767,-1.39038,1680.97,-2.73527,18.6767,-2.73527,1699.85,10,209,210,216,654,2956
93.6711,0.0328235,0.0356991,0.00330694,-0.015618,0.00330694,-0.00956119,-0.00479093,-0.015618,-0.00479093,0.00569975,3036.03,4.38342,-30.2766,4.38342,2949.75,-8.33831,-30.2766,-8.33831,2979.66,10,25,175,189,433,2957
42.1716,0.0144986,0.0106541,0.00205169,-0.0109719,0.00205169,0.000392253,-0.0021937,-0.0109719,-0.0021937,0.00792643,1856.97,3.92288,-21.3114,3.92288,1837.31,-4.25522,-21.3114,-4.25522,1852.2,10,163,184,189,422,2958
72.3015,0.0250531,0.0167,0.00470897,-0.0133792,0.00470897,-0.00455414,-0.0120025,-0.0133792,-0.0120025,0.0122143,2334.45,8.20534,-26.1146,8.20534,2293.52,-22.7057,-26.1146,-22.7057,2327.28,10,163,410,421,426,2959
0.00349867,1.16622e-06,0,-3.8447e-07,1.32349e-23,-3.8447e-07,-7.22873e-07,-8.35497e-07,1.32349e-23,-8.35497e-07,0,-0.0715647,-0.000768941,1.2849e-09,-0.000768941,-0.0730104,-0.00167099,1.2849e-09,-0.00167099,-0.0715647,10,211,214,626,627,2960
0.00327706,1.09235e-06,0,-4.81999e-07,-2.64698e-22,-4.81999e-07,-6.95761e-07,-7.07983e-07,-2.64698e-22,-7.07983e-07,0,-0.0688805,-0.000963999,1.36499e-09,-0.000963999,-0.070272,-0.00141597,1.36499e-09,-0.00141597,-0.0688805,10,210,215,216,628,2961
42.69,0.0144495,0.0013754,-0.000584292,0.00532514,-0.000584292,-0.00364104,-0.00812016,0.00532514,-0.00812016,0.0117899,911.998,-0.964089,10.4639,-0.964089,901.852,-15.6536,10.4639,-15.6536,932.979,10,211,626,627,658,2962
63.9457,0.0222601,0.0101487,-0.00033323,0.0158279,-0.00033323,-0.00184094,-0.00385898,0.0158279,-0.00385898,0.0186628,2595.68,-0.275607,30.2163,-0.275607,2573.08,-6.99013,30.2163,-6.99013,2613.02,10,11,210,254,655,2963
73.1513,0.024906,0.024608,-0.0106489,0.0006388,-0.0106489,-0.0122133,0.00210913,0.0006388,0.00210913,0.00129143,1307.11,-19.7999,1.16717,-19.7999,1233.88,4.30208,1.16717,4.30208,1260.83,10,97,684,685,689,2964
50.0041,0.0168313,0.0100152,0.0113618,-0.00523139,0.0113618,-0.00442642,0.00155013,-0.00523139,0.00155013,0.000694894,599.1,22.2916,-10.2967,22.2916,569.876,3.2743,-10.2967,3.2743,580.142,10,126,381,382,386,2965
29.4032,0.00982703,0,0.00445161,0,0.00445161,0.00173232,-0.00718406,0,-0.00718406,0,157.093,8.8938,-0.127585,8.8938,160.185,-14.3529,-0.127585,-14.3529,157.22,10,184,410,411,422,2966
47.9341,0.0165455,0.00190356,0.000707017,0.00769857,0.000707017,-0.00131933,-0.00116379,0.00769857,-0.00116379,0.0209025,2076.81,1.46406,14.7042,1.46406,2070.7,-1.98733,14.7042,-1.98733,2113.79,10,211,254,255,658,2967
39.2579,0.0132815,6.33615e-05,-0.00130055,0.00116412,-0.00130055,-0.00347812,-0.00760594,0.00116412,-0.00760594,0.0126035,881.216,-2.54066,2.35847,-2.54066,873.922,-14.6616,2.35847,-14.6616,906.211,10,211,212,626,658,2968
0.0043359,1.4453e-06,0,2.76365e-07,5.12852e-23,2.76365e-07,-9.956e-07,-1.07698e-06,5.12852e-23,-1.07698e-06,0,-0.0985648,0.00055273,-1.19056e-09,0.00055273,-0.100556,-0.00215396,-1.19056e-09,-0.00215396,-0.0985648,10,166,188,406,407,2969
48.2468,0.0169561,0.00366325,0.0022146,-0.00295542,0.0022146,0.00191402,0.00265685,-0.00295542,0.00265685,0.0269238,3150.8,4.18741,-5.61884,4.18741,3147.51,5.15073,-5.61884,5.15073,3194.9,10,165,167,427,428,2970
83.5637,0.0286623,0.0277172,0.0143327,0.00267353,0.0143327,-0.0119619,0.00102102,0.00267353,0.00102102,0.00270456,1752.41,26.546,5.14878,26.546,1673.43,1.67956,5.14878,1.67956,1702.83,10,118,127,378,382,2971
29.1416,0.00971417,1.45807e-09,-0.000307978,2.53408e-08,-0.000307978,0.000159985,-0.00840658,2.53408e-08,-0.00840658,2.97035e-07,1.76248,-0.615947,0.0104065,-0.615947,1.79901,-16.8129,0.0104065,-16.8129,2.04537,10,159,404,405,625,2972
153.412,0.0554596,0.00679018,0.00460859,0.00404118,0.00460859,-0.0230259,0.00280384,0.00404118,0.00280384,0.0700962,4833.36,9.1309,6.98048,9.1309,4779.28,11.9628,6.98048,11.9628,4949.56,10,161,162,402,423,2973
0,0,0,0,0,0,0,0,0,0,0,0,0,0,0,0,0,0,0,0,10,81,82,93,583,2974
117.291,0.0394051,0.0264523,0.0218253,-0.00739908,0.0218253,-0.0212281,0.00805729,-0.00739908,0.00805729,0.00182182,519.306,40.7386,-14.0854,40.7386,420.42,16.7856,-14.0854,16.7856,467.84,10,118,378,379,383,2975
327.499,0.105356,0.0771484,-0.0251478,0.0069704,-0.0251478,-0.0900196,-0.024036,0.0069704,-0.024036,0.00904054,-1957.29,-24.705,20.6718,-24.705,-2315.32,-47.8108,20.6718,-47.8108,-2102.47,10,1,639,640,665,2976
29.1416,0.00971417,-1.45805e-09,-0.000307977,-1.44586e-08,-0.000307977,0.000159985,-0.00840658,-1.44586e-08,-0.00840658,2.9703e-07,1.76219,-0.615946,0.0103269,-0.615946,1.79872,-16.8129,0.0103269,-16.8129,2.04508,10,159,404,405,406,2977
40.3707,0.0137726,0.00379492,0.00275176,-0.00328828,0.00275176,-0.00203986,-0.00838545,-0.00328828,-0.00838545,0.0125031,1384.79,5.28082,-6.47223,5.28082,1373.06,-16.0969,-6.47223,-16.0969,1402.16,10,165,407,427,428,2978
0.00286542,9.5514e-07,3.27379e-09,-7.19556e-07,3.42582e-08,-7.19556e-07,-5.38736e-07,6.18938e-08,3.42582e-08,6.18938e-08,2.46109e-07,-0.0286395,-0.00143911,6.85164e-05,-0.00143911,-0.0297236,0.000123788,6.85164e-05,0.000123788,-0.0281539,10,48,179,182,633,2979
39.0369,0.0132408,0.0144911,-0.0050775,-0.00358428,-0.0050775,-0.00287273,-0.00160807,-0.00358428,-0.00160807,-0.000876691,1062.79,-9.68144,-6.86847,-9.68144,1028.27,-3.26791,-6.86847,-3.26791,1032.28,10,48,182,633,689,2980
45.5944,0.0156947,0.0219953,-0.00120974,-0.00200099,-0.00120974,-0.00157933,-0.00105303,-0.00200099,-0.00105303,-0.000639944,1952.61,-2.06083,-3.67898,-2.06083,1906.87,-2.07176,-3.67898,-2.07176,1908.68,10,48,49,182,689,2981
47.6322,0.0164189,0.0230292,0.00190938,0.00126683,0.00190938,-0.00123497,-0.00119457,0.00126683,-0.00119457,-0.00114286,2036.81,3.41754,2.19183,3.41754,1989.78,-2.34194,2.19183,-2.34194,1989.98,10,27,28,176,387,2982
27.0431,0.00916707,0.0100767,0.00437786,-0.00304826,0.00437786,-0.000831093,-0.000654507,-0.00304826,-0.000654507,0.000991578,1017.68,8.59867,-5.94818,8.59867,996.176,-1.25393,-5.94818,-1.25393,999.735,10,75,126,385,386,2983
0.00281983,9.39944e-07,3.1608e-09,7.40708e-07,-2.38746e-08,7.40708e-07,-4.90009e-07,1.5848e-08,-2.38746e-08,1.5848e-08,1.52865e-07,-0.0330581,0.00148142,-4.77492e-05,0.00148142,-0.0340445,3.1696e-05,-4.77492e-05,3.1696e-05,-0.0327587,10,28,171,176,373,2984
40.8488,0.0138692,0.015174,0.00574039,0.00320403,0.00574039,-0.00223153,-0.00193469,0.00320403,-0.00193469,-0.00157256,1123.42,10.9724,6.06252,10.9724,1088.8,-3.91298,6.06252,-3.91298,1090.21,10,28,176,373,387,2985
436.831,0.123865,0.0439771,0.000791066,-0.000417452,0.000791066,-0.140585,0.0313582,-0.000417452,0.0313582,0.0292905,-9531.55,13.4774,-3.04139,13.4774,-9965.5,71.3165,-3.04139,71.3165,-9564.8,10,98,678,681,682,2986
0.00289201,9.64003e-07,0,-6.52043e-07,0,-6.52043e-07,-6.3441e-07,-3.71024e-07,0,-3.71024e-07,0,-0.0628067,-0.00130409,9.67694e-10,-0.00130409,-0.0640756,-0.000742048,9.67694e-10,-0.000742048,-0.0628067,10,217,218,219,630,2987
63.3323,0.0218964,0.0207427,-0.00429095,0.00905807,-0.00429095,-0.00553665,-0.00929928,0.00905807,-0.00929928,0.0075838,2210.32,-7.43342,17.9513,-7.43342,2159.46,-17.6788,17.9513,-17.6788,2185.63,10,219,630,644,649,2988
42.8502,0.0147048,0.00945168,-0.00206897,0.0111675,-0.00206897,0.000378874,-0.00305869,0.0111675,-0.00305869,0.00803584,1745.46,-3.90987,21.7265,-3.90987,1728.09,-5.91413,21.7265,-5.91413,1743.33,10,12,209,219,649,2989
554.461,0.147818,0.0532779,0.0151415,-0.00872379,0.0151415,-0.172567,-0.0250335,-0.00872379,-0.0250335,0.0304246,-13190.4,-21.6055,-28.231,-21.6055,-13758.7,-59.1849,-28.231,-59.1849,-13249,10,115,116,366,396,2990
64.8521,0.0225412,0.00724578,0.000304184,-0.015538,0.000304184,-0.00130517,-0.0048225,-0.015538,-0.0048225,0.0201186,2499.42,0.24022,-29.5883,0.24022,2483.46,-8.87469,-29.5883,-8.87469,2525.38,10,147,163,168,425,2991
266.875,0.0910831,0.0690164,0.0321964,-0.0202539,0.0321964,-0.0609089,-0.0220274,-0.0202539,-0.0220274,0.0185358,1533.88,46.4042,-44.728,46.4042,1267.2,-37.9952,-44.728,-37.9952,1433.59,10,150,431,432,437,2992
16.5147,0.00556198,0.00540439,0.00353196,-0.000571559,0.00353196,-0.000926009,-0.00055496,-0.000571559,-0.00055496,0.0017687,623.329,6.9913,-1.14013,6.9913,610.798,-1.09125,-1.14013,-1.09125,616.136,10,75,126,130,385,2993
0.00304395,1.01465e-06,0,6.79001e-07,0,6.79001e-07,-6.19584e-07,-4.27936e-07,0,-4.27936e-07,0,-0.0613389,0.001358,-1.16228e-09,0.001358,-0.0625781,-0.000855871,-1.16228e-09,-0.000855871,-0.0613389,10,183,184,189,411,2994
0.00306511,1.0217e-06,-2.43906e-08,-7.70049e-07,-7.59915e-09,-7.70049e-07,-6.01375e-07,4.97939e-08,-7.59915e-09,4.97939e-08,2.46138e-07,-0.0376321,-0.0015401,-1.51981e-05,-0.0015401,-0.0387861,9.95881e-05,-1.51981e-05,9.95881e-05,-0.0370911,10,178,181,182,632,2995
83.2319,0.0289254,0.0364123,-0.00397884,0.00336225,-0.00397884,-0.0100959,-0.00174534,0.00336225,-0.00174534,0.000130362,2547.23,-5.88077,6.70341,-5.88077,2457.51,-3.19725,6.70341,-3.19725,2477.45,10,181,182,632,690,2996
50.8379,0.0175069,0.0218732,0.000921093,0.00701605,0.000921093,-0.00324101,-0.00129062,0.00701605,-0.00129062,0.00148366,1976.74,2.23451,13.7573,2.23451,1928.28,-2.35257,13.7573,-2.35257,1937.53,10,180,181,219,642,2997
237.091,0.0776897,0.0567252,0.0210231,-0.00482478,0.0210231,-0.0673259,0.0118075,-0.00482478,0.0118075,0.00969238,-903.449,29.8107,-7.97669,29.8107,-1163.28,24.4421,-7.97669,24.4421,-1002.91,10,122,379,380,391,2998
77.7756,0.0270176,0.0279105,0.0061836,-0.0116912,0.0061836,-0.00587211,-0.00841274,-0.0116912,-0.00841274,0.00399428,2504.84,10.8,-23.3002,10.8,2439.99,-15.959,-23.3002,-15.959,2460.08,10,62,189,416,422,2999
0.00290229,9.67429e-07,-3.66629e-08,7.63676e-07,-2.21553e-08,7.63676e-07,-4.93346e-07,3.34446e-08,-2.21553e-08,3.34446e-08,1.76548e-07,-0.0350661,0.00152735,-4.43107e-05,0.00152735,-0.0359795,6.68894e-05,-4.43107e-05,6.68894e-05,-0.0346397,10,172,174,176,372,3000
39.2387,0.0130454,-0.00206511,0.00785168,-0.00192382,0.00785168,-0.00440476,-0.00611852,-0.00192382,-0.00611852,0.00515837,-159.49,15.6793,-3.85941,15.6793,-164.36,-12.2898,-3.85941,-12.2898,-144.997,10,183,370,371,417,3001
0.00270736,9.02452e-07,0,-7.22487e-07,3.97047e-23,-7.22487e-07,-4.73735e-07,1.18396e-07,3.97047e-23,1.18396e-07,0,-0.0468999,-0.00144498,-3.42159e-10,-0.00144498,-0.0478474,0.000236792,-3.42159e-10,0.000236792,-0.0468999,10,48,179,338,633,3002
80.899,0.0282954,0.0371897,-0.00283806,0.00426456,-0.00283806,-0.00827259,0.000756784,0.00426456,0.000756784,0.00138728,2929.04,-3.70201,8.25415,-3.70201,2842.08,1.66674,8.25415,1.66674,2860.68,10,182,633,689,690,3003
83.362,0.0289796,0.0366646,-0.0037871,0.00283875,-0.0037871,-0.00998175,-0.00194374,0.00283875,-0.00194374,-4.28678e-05,2566.08,-5.51417,5.74201,-5.51417,2476.15,-3.60469,5.74201,-3.60469,2495.52,10,182,632,633,690,3004
0.00298141,9.93804e-07,0,7.92735e-07,0,7.92735e-07,-5.62955e-07,-8.16453e-08,0,-8.16453e-08,0,-0.0557327,0.00158547,-2.58893e-10,0.00158547,-0.0568586,-0.000163291,-2.58893e-10,-0.000163291,-0.0557327,10,172,173,174,372,3005
33.8031,0.0113791,0.00894724,0.00693952,-0.00315833,0.00693952,-0.0022672,0.00155941,-0.00315833,0.00155941,-0.000574398,601.939,13.6535,-6.27201,13.6535,579.56,3.1215,-6.27201,3.1215,582.968,10,110,127,377,381,3006
64.0303,0.0216008,0.0153393,0.00931274,-0.0106674,0.00931274,-0.00440149,0.00528142,-0.0106674,0.00528142,-0.00303496,742.446,17.8622,-20.7695,17.8622,702.515,10.7861,-20.7695,10.7861,705.053,10,127,128,377,378,3007
23.4816,0.0078271,0.000609146,0.0062583,0.000975115,0.0062583,0.00026788,-0.00230133,0.000975115,-0.00230133,-0.000792696,0.585824,12.5052,1.91514,12.5052,-0.446892,-4.6311,1.91514,-4.6311,-2.40027,10,74,75,375,386,3008
0.0027559,9.18633e-07,0,7.3105e-07,5.9557e-23,7.3105e-07,-5.18407e-07,9.43349e-08,5.9557e-23,9.43349e-08,0,-0.0513224,0.0014621,2.75854e-10,0.0014621,-0.0523592,0.00018867,2.75854e-10,0.00018867,-0.0513224,10,28,171,341,373,3009
25.3064,0.00841801,0,0.00461927,0,0.00461927,-0.00113604,-0.00560172,0,-0.00560172,0,-123.043,9.2462,-0.103718,9.2462,-125.616,-11.2127,-0.103718,-11.2127,-123.003,10,183,371,411,417,3010
41.0552,0.0136811,0.00799411,0.00462918,-0.00335868,0.00462918,0.0014674,-0.00555728,-0.00335868,-0.00555728,-0.00935501,-1.52003,9.06979,-7.13586,9.06979,-14.7128,-11.3243,-7.13586,-11.3243,-35.8784,10,163,184,410,422,3011
0.00309748,1.03249e-06,0,-7.66584e-07,0,-7.66584e-07,-7.56298e-07,-1.4565e-07,0,-1.4565e-07,0,-0.0748737,-0.00153317,4.46613e-10,-0.00153317,-0.0763863,-0.0002913,4.46613e-10,-0.0002913,-0.0748737,10,177,181,218,631,3012
35.6421,0.0118755,-0.00108352,-0.00727536,0.00225303,-0.00727536,-0.00392193,-0.00521745,0.00225303,-0.00521745,0.00495257,-28.4238,-14.4936,4.53511,-14.4936,-34.3265,-10.4356,4.53511,-10.4356,-16.3541,10,218,631,642,643,3013
59.6822,0.0209901,0.0120686,0.00223875,0.0137487,0.00223875,-0.00109796,-0.000104395,0.0137487,-0.000104395,0.0221928,3208.98,4.3953,25.8657,4.3953,3184.51,0.0756647,25.8657,0.0756647,3229.11,10,211,254,655,658,3014
190.361,0.0680233,0.0751125,-0.00379635,0.00879969,-0.00379635,-0.0361688,-0.0159141,0.00879969,-0.0159141,0.0100812,4269.13,4.27842,19.6095,4.27842,4061.55,-28.5195,19.6095,-28.5195,4148.81,10,0,1,640,665,3015
55.373,0.0190254,0.00165723,0.000331,0.00506468,0.000331,-0.00503338,-0.00666167,0.00506468,-0.00666167,0.0221957,1802.76,0.790194,9.68036,0.790194,1789.73,-12.6019,9.68036,-12.6019,1842.93,10,160,212,404,659,3016
64.6893,0.0226653,0.000675091,-6.16177e-06,0.00477323,-6.16177e-06,-0.0018761,-0.00178688,0.00477323,-0.00178688,0.0321569,2963.25,0.0679697,9.02376,0.0679697,2958.36,-2.88112,9.02376,-2.88112,3023.23,10,160,161,255,659,3017
80.2721,0.0269932,0.0105596,0.0148653,-0.00937446,0.0148653,-0.0110451,-0.0102073,-0.00937446,-0.0102073,0.00684276,541.701,28.7734,-18.9842,28.7734,497.89,-20.155,-18.9842,-20.155,534.645,10,189,370,416,433,3018
233.509,0.0775063,0.0169105,0.00856704,-0.00705642,0.00856704,-0.0663322,-0.0217058,-0.00705642,-0.0217058,0.0561363,-224.185,14.1218,-15.5416,14.1218,-396.361,-29.07,-15.5416,-29.07,-141.647,10,149,401,412,418,3019
93.4256,0.0322471,0.00657254,0.00346921,-0.0131702,0.00346921,-0.0134148,-0.0116083,-0.0131702,-0.0116083,0.0294327,2083.53,5.99263,-25.3163,5.99263,2044.43,-20.9282,-25.3163,-20.9282,2129.08,10,168,424,425,428,3020
110.155,0.0393772,0.0087805,-0.00105499,0.0119243,-0.00105499,-0.0134953,0.000135727,0.0119243,0.000135727,0.0494755,4170.1,-1.26096,21.948,-1.26096,4128.82,3.36977,21.948,3.36977,4246.27,10,255,257,656,657,3021
386.465,0.119175,0.061353,-0.0247849,0.0177248,-0.0247849,-0.115141,-0.0285668,0.0177248,-0.0285668,0.0310699,-4503.44,-28.2663,43.9243,-28.2663,-4898.05,-47.0425,43.9243,-47.0425,-4567.55,10,15,662,663,667,3022
146.691,0.0520343,0.0160783,-0.00759075,0.0251258,-0.00759075,-0.0221737,-0.0107568,0.0251258,-0.0107568,0.047753,3723.25,-11.5962,47.4037,-11.5962,3650.25,-14.9795,47.4037,-14.9795,3785.26,10,256,651,652,655,3023
236.159,0.0793954,0.0255682,0.0056811,-0.0206801,0.0056811,-0.0651753,-0.0193973,-0.0206801,-0.0193973,0.0543502,551.13,5.18937,-41.1539,5.18937,368.154,-23.596,-41.1539,-23.596,614.008,10,149,154,412,413,3024
150.198,0.0534797,0.0132084,2.04256e-05,0.0271073,2.04256e-05,-0.0210191,-0.00872938,0.0271073,-0.00872938,0.051983,3941.73,2.87407,50.425,2.87407,3877.52,-10.8862,50.425,-10.8862,4016.67,10,9,10,257,652,3025
80.4522,0.0279256,0.027662,0.00682662,-0.0114042,0.00682662,-0.00737138,-0.00968011,-0.0114042,-0.00968011,0.00534388,2458.18,12.0262,-22.7577,12.0262,2390.89,-18.4665,-22.7577,-18.4665,2416.41,10,62,189,416,433,3026
64.627,0.0225033,0.0100311,-0.000551211,0.0157902,-0.000551211,-0.00198516,-0.0042723,0.0157902,-0.0042723,0.0191042,2611.43,-0.670998,30.1394,-0.670998,2588.74,-7.75106,30.1394,-7.75106,2629.82,10,11,254,256,655,3027
229.229,0.0754591,0.0477782,0.0330351,-0.0067476,0.0330351,-0.0572061,-0.0172964,-0.0067476,-0.0172964,0.0106917,-647.83,57.5257,-15.9393,57.5257,-870.849,-34.3131,-15.9393,-34.3131,-727.386,10,25,368,436,437,3028
81.0438,0.0280428,0.0288001,-0.00313762,0.0126031,-0.00313762,-0.0110621,-0.00459393,0.0126031,-0.00459393,0.00598985,2274.12,-4.51283,24.6531,-4.51283,2197.02,-8.16157,24.6531,-8.16157,2230.57,10,180,219,642,660,3029
154.005,0.0540115,0.0329063,-0.0101565,0.0262733,-0.0101565,-0.0269366,-0.0165027,0.0262733,-0.0165027,0.0290726,3079.43,-14.3826,51.2552,-14.3826,2964.2,-28.0241,51.2552,-28.0241,3075.68,10,10,11,646,651,3030
582.745,0.152327,0.0413085,-0.00462689,0.0124819,-0.00462689,-0.180335,-0.0277924,0.0124819,-0.0277924,0.0423561,-14402.5,16.6841,34.0736,16.6841,-14973.2,-35.1502,34.0736,-35.1502,-14392.3,10,14,663,664,668,3031
202.043,0.0688463,0.0265867,-0.00225395,0.0275837,-0.00225395,-0.0500345,-0.0171696,0.0275837,-0.0171696,0.0437672,1353.41,4.02089,54.5277,4.02089,1202.35,-23.0173,54.5277,-23.0173,1392.55,10,10,17,18,647,3032
143.378,0.0496464,0.00925615,0.00296017,-0.0206337,0.00296017,-0.0260106,-0.0145444,-0.0206337,-0.0145444,0.0433408,2275.92,3.18185,-39.6628,3.18185,2206.9,-23.3047,-39.6628,-23.3047,2344.39,10,169,170,419,424,3033
119.281,0.0419898,0.0168904,-0.00444172,0.0252984,-0.00444172,-0.011222,-0.0148272,0.0252984,-0.0148272,0.0299561,3271.54,-6.38563,48.1169,-6.38563,3217.86,-25.8332,48.1169,-25.8332,3299.44,10,11,256,651,655,3034
100.397,0.0354568,0.0410227,0.00308725,0.0163407,0.00308725,-0.00805107,-0.00340616,0.0163407,-0.00340616,0.00391495,3510.19,7.75901,31.6138,7.75901,3418.61,-5.64769,31.6138,-5.64769,3441.74,10,13,180,219,660,3035
0.00289201,9.64003e-07,0,-6.52043e-07,0,-6.52043e-07,-6.3441e-07,-3.71024e-07,0,-3.71024e-07,0,-0.0628067,-0.00130409,9.67694e-10,-0.00130409,-0.0640756,-0.000742048,9.67694e-10,-0.000742048,-0.0628067,10,216,217,219,629,3036
110.176,0.0379856,0.00397129,0.00110581,-0.00251563,0.00110581,-0.0218156,-0.00996249,-0.00251563,-0.00996249,0.0403466,2011.03,1.89938,-4.65082,1.89938,1960.28,-16.1274,-4.65082,-16.1274,2082.36,10,161,403,423,427,3037
138.779,0.0495009,0.0164769,0.00337509,-0.0239339,0.00337509,-0.0202191,-0.00856011,-0.0239339,-0.00856011,0.048436,4053.32,4.08651,-44.5895,4.08651,3984.31,-11.4524,-44.5895,-11.4524,4115.15,10,148,170,419,420,3038
151.505,0.0537113,0.0340027,0.00943199,-0.0283428,0.00943199,-0.0236828,-0.0145756,-0.0283428,-0.0145756,0.0312587,3722.37,12.655,-54.497,12.655,3612.72,-23.5429,-54.497,-23.5429,3721.23,10,147,148,153,414,3039
223.481,0.0786017,0.0640139,0.0244505,-0.0280652,0.0244505,-0.0458888,-0.0126436,-0.0280652,-0.0126436,0.0234166,3308.41,35.0307,-55.8902,35.0307,3092.43,-18.1656,-55.8902,-18.1656,3230.67,10,150,415,431,432,3040
268.744,0.0917457,0.0669486,0.0336741,-0.0221574,0.0336741,-0.0619286,-0.0202318,-0.0221574,-0.0202318,0.0219835,1545.77,49.2868,-48.2523,49.2868,1281.22,-34.7579,-48.2523,-34.7579,1456.36,10,150,431,436,437,3041
121.557,0.0428293,0.0395233,0.0105942,-0.0168142,0.0105942,-0.0163524,-0.0141237,-0.0168142,-0.0141237,0.0131351,3368.15,16.7916,-33.3779,16.7916,3261.06,-25.5589,-33.3779,-25.5589,3319.94,10,62,415,421,422,3042
234.298,0.0816834,0.0843022,0.0173338,0.0099182,0.0173338,-0.0497072,-0.00631016,0.0099182,-0.00631016,0.00221225,2824.94,15.7628,16.328,15.7628,2561.97,-14.1393,16.328,-14.1393,2663.73,10,121,122,124,380,3043
0.00270736,9.02452e-07,0,-7.22487e-07,2.64698e-23,-7.22487e-07,-4.73735e-07,1.18396e-07,2.64698e-23,1.18396e-07,0,-0.0468999,-0.00144498,-3.42159e-10,-0.00144498,-0.0478474,0.000236792,-3.42159e-10,0.000236792,-0.0468999,10,48,338,633,634,3044
110.213,0.0391288,0.0493558,0.00573087,-0.00748109,0.00573087,-0.0141886,0.000343229,-0.00748109,0.000343229,0.00534844,3839.44,7.53345,-13.8227,7.53345,3719.08,1.30237,-13.8227,1.30237,3756.13,10,27,121,383,384,3045
52.4467,0.0179874,0.00334655,-0.00329356,0.0076405,-0.00329356,-0.00309537,-0.00796439,0.0076405,-0.00796439,0.0174139,1698.73,-6.1789,14.9801,-6.1789,1685.77,-14.9833,14.9801,-14.9833,1726.36,10,210,211,627,655,3046
240.26,0.0809356,0.0560451,-0.030078,0.0191867,-0.030078,-0.0557992,-0.0207208,0.0191867,-0.0207208,0.0159476,735.01,-46.0373,42.4862,-46.0373,502.195,-36.5838,42.4862,-36.5838,654.44,10,16,661,665,666,3047
0.00349867,1.16622e-06,0,-3.8447e-07,5.29396e-23,-3.8447e-07,-7.22873e-07,-8.35497e-07,5.29396e-23,-8.35497e-07,0,-0.0715647,-0.000768941,1.2849e-09,-0.000768941,-0.0730104,-0.00167099,1.2849e-09,-0.00167099,-0.0715647,10,211,214,215,627,3048
46.7406,0.0162042,0.00012677,-4.85328e-05,0.00212714,-4.85328e-05,4.52322e-06,-0.00121031,0.00212714,-0.00121031,0.023999,2333.2,-0.0859086,4.03534,-0.0859086,2332.97,-2.27466,4.03534,-2.27466,2379.13,10,159,160,212,404,3049
0.00337229,1.1241e-06,0,5.06084e-07,1.58819e-22,5.06084e-07,-7.61626e-07,-7.05844e-07,1.58819e-22,-7.05844e-07,0,-0.0754011,0.00101217,-1.42887e-09,0.00101217,-0.0769244,-0.00141169,-1.42887e-09,-0.00141169,-0.0754011,10,164,185,186,409,3050
133.886,0.0479662,0.0456593,0.0046549,-0.0283703,0.0046549,-0.0113143,-0.00901187,-0.0283703,-0.00901187,0.0128208,4368.74,5.4608,-54.0689,5.4608,4263.19,-15.087,-54.0689,-15.087,4310.83,10,62,63,150,415,3051
0.00365737,1.21912e-06,8.38395e-08,4.46086e-07,8.87521e-08,4.46086e-07,-7.56568e-07,-8.26209e-07,8.87521e-08,-8.26209e-07,4.55951e-08,-0.0619188,0.000892173,0.000177503,0.000892173,-0.0635996,-0.00165242,0.000177503,-0.00165242,-0.0619952,10,165,166,187,407,3052
0.00352512,1.17504e-06,0,4.15546e-07,5.29396e-23,4.15546e-07,-7.42935e-07,-8.23937e-07,5.29396e-23,-8.23937e-07,0,-0.0735508,0.000831093,-1.36954e-09,0.000831093,-0.0750367,-0.00164788,-1.36954e-09,-0.00164788,-0.0735508,10,165,186,187,408,3053
81.9329,0.0285585,0.036643,0.0052705,-0.00268927,0.0052705,-0.00852045,-0.0013346,-0.00268927,-0.0013346,0.000100699,2723.76,8.49003,-5.33411,8.49003,2636.72,-2.44783,-5.33411,-2.44783,2653.58,10,174,176,372,388,3054
18.1191,0.00611288,0,-0.00319186,2.1684e-19,-0.00319186,0.00730083,-0.000264793,2.1684e-19,-0.000264793,0,715.61,-6.35304,0.00334026,-6.35304,729.956,-0.527041,0.00334026,-0.527041,715.57,10,91,92,339,635,3055
117.668,0.039574,0.0259908,-0.0228044,0.0062464,-0.0228044,-0.0192353,0.0101101,0.0062464,0.0101101,0.000958025,582.01,-42.9522,11.8835,-42.9522,488.358,20.6733,11.8835,20.6733,529.983,10,96,672,673,685,3056
0.00277542,9.25138e-07,0,-7.31033e-07,0,-7.31033e-07,-5.66717e-07,-2.10962e-08,0,-2.10962e-08,0,-0.0561052,-0.00146207,6.16882e-11,-0.00146207,-0.0572386,-4.21924e-05,6.16882e-11,-4.21924e-05,-0.0561052,10,178,182,632,633,3057
0.00277542,9.25138e-07,0,-7.31033e-07,0,-7.31033e-07,-5.66717e-07,-2.10962e-08,0,-2.10962e-08,0,-0.0561052,-0.00146207,6.16882e-11,-0.00146207,-0.0572386,-4.21924e-05,6.16882e-11,-4.21924e-05,-0.0561052,10,178,179,182,633,3058
0.00309748,1.03249e-06,0,-7.66584e-07,0,-7.66584e-07,-7.56298e-07,-1.4565e-07,0,-1.4565e-07,0,-0.0748737,-0.00153317,4.46613e-10,-0.00153317,-0.0763863,-0.0002913,4.46613e-10,-0.0002913,-0.0748737,10,177,178,181,632,3059
0.00309748,1.03249e-06,0,-7.66584e-07,0,-7.66584e-07,-7.56298e-07,-1.4565e-07,0,-1.4565e-07,0,-0.0748737,-0.00153317,4.46613e-10,-0.00153317,-0.0763863,-0.0002913,4.46613e-10,-0.0002913,-0.0748737,10,177,181,631,632,3060
682.257,0.163143,0.0513253,-0.0155317,0.00519423,-0.0155317,-0.202142,-0.0303114,0.00519423,-0.0303114,0.0148154,-19728,-57.4094,16.9831,-57.4094,-20439.5,-38.7689,16.9831,-38.7689,-19818.3,10,5,6,398,438,3061
79.3508,0.0276255,0.0312446,-0.0133211,-0.00318866,-0.0133211,-0.00602963,0.00116067,-0.00318866,0.00116067,0.00220601,2643.05,-24.2925,-6.0462,-24.2925,2569.96,2.01221,-6.0462,2.01221,2586.55,10,96,104,105,672,3062
0.00273361,9.11202e-07,0,7.39301e-07,0,7.39301e-07,-4.77781e-07,7.68581e-09,0,7.68581e-09,0,-0.0473004,0.0014786,2.27285e-11,0.0014786,-0.048256,1.53716e-05,2.27285e-11,1.53716e-05,-0.0473004,10,172,176,372,373,3063
82.0693,0.0286159,0.0368966,0.0050861,-0.00215789,0.0050861,-0.00842449,-0.00150292,-0.00215789,-0.00150292,-3.30583e-05,2744.77,8.13751,-4.35872,8.13751,2657.49,-2.79558,-4.35872,-2.79558,2673.89,10,176,372,373,388,3064
0.00273361,9.11202e-07,0,7.39301e-07,0,7.39301e-07,-4.77781e-07,7.68581e-09,0,7.68581e-09,0,-0.0473004,0.0014786,2.27285e-11,0.0014786,-0.048256,1.53716e-05,2.27285e-11,1.53716e-05,-0.0473004,10,171,172,176,373,3065
0.00298141,9.93804e-07,0,7.92735e-07,0,7.92735e-07,-5.62955e-07,-8.16453e-08,0,-8.16453e-08,0,-0.0557327,0.00158547,-2.58893e-10,0.00158547,-0.0568586,-0.000163291,-2.58893e-10,-0.000163291,-0.0557327,10,173,174,371,372,3066
8.10927,0.0027004,-0.00151247,-0.000333213,0.00136663,-0.000333213,0.000906717,0.00141154,0.00136663,0.00141154,2.04758e-05,-62.0671,-0.65344,2.74457,-0.65344,-57.2204,2.82095,2.74457,2.82095,-59.0196,10,28,74,341,374,3067
97.9321,0.0336616,0.0369424,0.00992241,-0.00228456,0.00992241,-0.0162122,0.000383084,-0.00228456,0.000383084,-0.000542293,1895.16,16.9969,-4.62172,16.9969,1790.52,0.86864,-4.62172,0.86864,1821.71,10,27,383,387,388,3068
333.519,0.100204,0.0383001,-0.00513631,0.0141586,-0.00513631,-0.113215,-0.00500425,0.0141586,-0.00500425,0.0305019,-6097.21,-3.4356,31.351,-3.4356,-6432.79,-28.171,31.351,-28.171,-6118.67,10,95,98,677,681,3069
18.1852,0.00613257,0,0.0034172,1.23667e-19,0.0034172,0.00704177,1.59275e-05,1.23667e-19,1.59275e-05,0,690.05,6.80271,0.000215195,6.80271,703.878,0.0317072,0.000215195,0.0317072,690.004,10,74,75,340,375,3070
18.1852,0.00613257,0,0.0034172,-4.06576e-20,0.0034172,0.00704177,1.59275e-05,-4.06576e-20,1.59275e-05,0,690.05,6.80271,0.000215195,6.80271,703.878,0.0317072,0.000215195,0.0317072,690.004,10,74,340,341,374,3071
18.7429,0.00627877,0.0025932,0.00511313,-0.000453243,0.00511313,0.000467638,-0.0011362,-0.000453243,-0.0011362,-1.60845e-05,300.596,10.1389,-0.933433,10.1389,296.042,-2.25992,-0.933433,-2.25992,295.25,10,74,374,375,386,3072
24.6061,0.00821277,0.00334237,-0.00636534,0.000677074,-0.00636534,-0.00192706,0.00146966,0.000677074,0.00146966,-0.000528887,84.5574,-12.6183,1.36995,-12.6183,73.6207,2.95594,1.36995,2.95594,76.59,10,91,634,688,689,3073
18.1191,0.00611288,0,-0.00319186,-2.03288e-19,-0.00319186,0.00730083,-0.000264793,-2.03288e-19,-0.000264793,0,715.61,-6.35304,0.00334026,-6.35304,729.956,-0.527041,0.00334026,-0.527041,715.57,10,91,339,634,635,3074
26.0887,0.00871281,0.000798346,-0.0070413,-0.00134193,-0.0070413,0.00104049,-0.00218796,-0.00134193,-0.00218796,-0.000582767,114.788,-14.0513,-2.64034,-14.0513,114.833,-4.4093,-2.64034,-4.4093,111.8,10,91,92,635,688,3075
10.5674,0.00353756,0,-0.00258047,0,-0.00258047,0.00258825,-0.000702757,0,-0.000702757,0,254.187,-5.15212,0.0072228,-5.15212,259.287,-1.40311,0.0072228,-1.40311,254.163,10,92,93,636,687,3076
0.00438566,1.46188e-06,0,-2.24322e-07,2.64698e-23,-2.24322e-07,-1.07248e-06,-1.08125e-06,2.64698e-23,-1.08125e-06,0,-0.106176,-0.000448644,9.70195e-10,-0.000448644,-0.108321,-0.00216251,9.70195e-10,-0.00216251,-0.106176,10,212,213,214,626,3077
0.00438564,1.46188e-06,6.34026e-12,-2.24313e-07,1.48063e-11,-2.24313e-07,-1.07247e-06,-1.08125e-06,1.48063e-11,-1.08125e-06,-4.57012e-12,-0.106175,-0.000448627,3.05829e-08,-0.000448627,-0.10832,-0.0021625,3.05829e-08,-0.0021625,-0.106175,10,159,212,213,625,3078
190.302,0.0670134,0.0502703,-0.0101133,0.0363016,-0.0101133,-0.033338,-0.0114964,0.0363016,-0.0114964,0.0227767,3353.49,-10.4201,70.3162,-10.4201,3192.74,-15.9101,70.3162,-15.9101,3303.41,10,11,16,18,662,3079
0.00438566,1.46188e-06,0,-2.24322e-07,-5.45939e-23,-2.24322e-07,-1.07248e-06,-1.08125e-06,-5.45939e-23,-1.08125e-06,0,-0.106176,-0.000448644,9.70195e-10,-0.000448644,-0.108321,-0.00216251,9.70195e-10,-0.00216251,-0.106176,10,212,213,625,626,3080
56.1399,0.0192923,0.0113363,-0.00511022,0.0124957,-0.00511022,0.00123178,-0.0084475,0.0124957,-0.0084475,0.00637212,1831.64,-9.50547,24.457,-9.50547,1812.09,-16.3092,24.457,-16.3092,1823.09,10,219,629,630,649,3081
68.656,0.0241436,0.0092162,0.000525873,0.0161703,0.000525873,-0.00106651,-0.000955925,0.0161703,-0.000955925,0.025152,3197.24,1.22453,30.4907,1.22453,3178.07,-1.45223,30.4907,-1.45223,3228.13,10,210,211,254,655,3082
107.972,0.0385889,0.00617227,0.000298557,-0.011247,0.000298557,-0.011298,-0.00216963,-0.011247,-0.00216963,0.0496645,4152.92,-0.0469523,-20.5324,-0.0469523,4120.44,-1.27315,-20.5324,-1.27315,4234.65,10,167,169,423,424,3083
0.00433588,1.44529e-06,7.81064e-12,2.76357e-07,-1.46348e-11,2.76357e-07,-9.95596e-07,-1.07697e-06,-1.46348e-11,-1.07697e-06,-4.55347e-12,-0.0985641,0.000552714,-3.04601e-08,0.000552714,-0.100555,-0.00215395,-3.04601e-08,-0.00215395,-0.0985641,10,159,166,188,406,3084
64.0453,0.0224013,0.00106451,-0.00119351,-0.00798822,-0.00119351,-0.00145236,-0.000141645,-0.00798822,-0.000141645,0.0302785,2861.94,-2.38159,-14.9011,-2.38159,2857.32,0.164335,-14.9011,0.164335,2917.96,10,165,166,167,427,3085
0.0043359,1.4453e-06,0,2.76365e-07,-2.64698e-23,2.76365e-07,-9.956e-07,-1.07698e-06,-2.64698e-23,-1.07698e-06,0,-0.0985648,0.00055273,-1.19056e-09,0.00055273,-0.100556,-0.00215396,-1.19056e-09,-0.00215396,-0.0985648,10,166,187,188,407,3086
75.8931,0.0263508,0.0149191,0.00516916,-0.0169065,0.00516916,-0.00491795,-0.00847592,-0.0169065,-0.00847592,0.0156784,2450.9,9.23889,-32.6404,9.23889,2412.74,-15.7318,-32.6404,-15.7318,2453.57,10,62,163,421,422,3087
211.617,0.0738697,0.0328607,-0.0132077,0.0235106,-0.0132077,-0.0514021,-0.0151714,0.0235106,-0.0151714,0.0546073,2798.91,-18.5556,45.8897,-18.5556,2634.84,-18.8413,45.8897,-18.8413,2844.06,10,10,646,647,651,3088
88.2906,0.0307407,0.0317836,-0.00236155,-0.013926,-0.00236155,-0.00125254,-0.011309,-0.013926,-0.011309,-0.00277518,2647.05,-5.68426,-28.583,-5.68426,2585.44,-21.2628,-28.583,-21.2628,2583.94,10,147,163,421,426,3089
685.129,0.154031,0.0278034,-0.00601889,0.0129467,-0.00601889,-0.209352,-0.0143506,0.0129467,-0.0143506,0.00908074,-23518.4,11.6542,39.5131,11.6542,-24224.7,-2.82476,39.5131,-2.82476,-23571.3,10,5,6,19,670,3090
36.8409,0.0125356,0.0147699,-0.00520708,0.000627382,-0.00520708,-0.00172482,-0.00250637,0.000627382,-0.00250637,-0.000415921,1251.22,-10.1607,1.23661,-10.1607,1218.86,-4.91373,1.23661,-4.91373,1221.44,10,91,92,106,688,3091
627.701,0.161835,0.0670618,-0.00167349,-0.00675256,-0.00167349,-0.188523,-0.0304096,-0.00675256,-0.0304096,0.0230376,-15166.2,-39.1653,-20.6184,-39.1653,-15828.8,-49.7318,-20.6184,-49.7318,-15270.7,10,152,434,438,439,3092
34.8496,0.0118282,0.0099982,0.00303839,-0.00653924,0.00303839,-0.00261451,-0.00362843,-0.00653924,-0.00362843,0.00369541,1091.84,5.87707,-12.9678,5.87707,1067.31,-7.1844,-12.9678,-7.1844,1079.93,10,183,189,370,417,3093
0.00347319,1.15773e-06,1.10076e-07,4.96324e-07,9.64599e-08,4.96324e-07,-7.60784e-07,-7.13711e-07,9.64599e-08,-7.13711e-07,6.43599e-08,-0.0578285,0.000992649,0.000192919,0.000992649,-0.0595702,-0.00142742,0.000192919,-0.00142742,-0.0579199,10,164,165,186,408,3094
151.579,0.0541064,0.0160097,-0.00625461,0.0265892,-0.00625461,-0.0221148,-0.00888,0.0265892,-0.00888,0.0519193,4095.96,-9.15758,49.7136,-9.15758,4024.03,-11.3441,49.7136,-11.3441,4165.08,10,10,256,651,652,3095
26.2245,0.00881619,-0.000108795,-0.000226704,-0.00146417,-0.000226704,0.000107751,-0.00685299,-0.00146417,-0.00685299,0.00523118,505.181,-0.491565,-2.87936,-0.491565,505.435,-13.5195,-2.87936,-13.5195,515.973,10,159,212,404,625,3096
59.2116,0.0206653,0.000505467,-0.000461955,-0.00447948,-0.000461955,-0.00150371,-0.000351851,-0.00447948,-0.000351851,0.0294448,2731.08,-0.94299,-8.42673,-0.94299,2727.28,-0.273188,-8.42673,-0.273188,2786.45,10,160,166,167,427,3097
47.9858,0.0165964,0.00155225,0.000620746,0.00670486,0.000620746,-0.00100314,-0.000237324,0.00670486,-0.000237324,0.0221527,2194.61,1.26436,12.7908,1.26436,2189.77,-0.227291,12.7908,-0.227291,2234.49,10,211,212,255,658,3098
678.869,0.168619,0.0435906,-0.00802174,0.00180452,-0.00802174,-0.200078,-0.038131,0.00180452,-0.038131,0.0437285,-17465.8,-29.1092,5.82954,-29.1092,-18130.3,-51.8085,5.82954,-51.8085,-17453.1,10,6,398,399,434,3099
0.00364283,1.21428e-06,9.64761e-08,-4.28481e-07,-8.84507e-08,-4.28481e-07,-7.41736e-07,-8.33009e-07,-8.84507e-08,-8.33009e-07,4.42782e-08,-0.0593045,-0.000856963,-0.0001769,-0.000856963,-0.0609809,-0.00166602,-0.0001769,-0.00166602,-0.0594089,10,211,212,214,626,3100
146.457,0.0524271,0.0671371,-0.00159878,0.00168643,-0.00159878,-0.0163008,-0.00599978,0.00168643,-0.00599978,-0.00354284,4361.06,2.24101,4.88549,2.24101,4205.66,-10.9948,4.88549,-10.9948,4229.62,10,49,50,100,686,3101
900.242,0.188955,0.0525726,0.00979295,-0.00566803,0.00979295,-0.244521,-0.0270394,-0.00566803,-0.0270394,0.0115346,-27659.7,47.8342,-14.8569,47.8342,-28595.7,-107.079,-14.8569,-107.079,-27793.9,10,4,90,364,637,3102
151.194,0.0544312,0.0598306,-0.00470996,0.0217679,-0.00470996,-0.019827,-0.0106507,0.0217679,-0.0106507,0.0111234,4683.41,-3.1428,42.5522,-3.1428,4536.18,-17.8448,42.5522,-17.8448,4596.16,10,13,16,645,661,3103
18.1191,0.00611288,0,-0.00319186,-4.06576e-20,-0.00319186,0.00730083,-0.000264793,-4.06576e-20,-0.000264793,0,715.61,-6.35304,0.00334026,-6.35304,729.956,-0.527041,0.00334026,-0.527041,715.57,10,91,338,339,634,3104
111.606,0.0394082,0.00145868,0.000704594,0.0085786,0.000704594,-0.0137642,0.000450265,0.0085786,0.000450265,0.0495032,3425.22,1.86864,16.0389,1.86864,3396.66,3.98546,16.0389,3.98546,3515.89,10,161,255,257,657,3105
0.00298141,9.93804e-07,0,7.92735e-07,0,7.92735e-07,-5.62955e-07,-8.16453e-08,0,-8.16453e-08,0,-0.0557327,0.00158547,-2.58893e-10,0.00158547,-0.0568586,-0.000163291,-2.58893e-10,-0.000163291,-0.0557327,10,173,174,183,371,3106
136.69,0.0474972,0.0383616,0.0171751,-0.0161499,0.0171751,-0.0243134,-0.0116608,-0.0161499,-0.0116608,0.0144071,2542.54,28.4917,-32.4795,28.4917,2418.45,-20.6799,-32.4795,-20.6799,2496.36,10,63,415,432,433,3107
15.3546,0.00514931,0.00336377,0.002908,-0.00269152,0.002908,-0.000369627,-0.000693992,-0.00269152,-0.000693992,0.000685372,366.613,5.78671,-5.3368,5.78671,359.173,-1.36844,-5.3368,-1.36844,361.243,10,113,130,354,385,3108
26.5282,0.00900727,0.00871162,0.0027723,-0.00585671,0.0027723,0.000682394,-4.48725e-05,-0.00585671,-4.48725e-05,0.00182874,1112.37,5.41417,-11.4474,5.41417,1096.48,-0.0489652,-11.4474,-0.0489652,1098.65,10,130,354,355,381,3109
131.229,0.0458818,0.0537788,0.00048477,-0.00681166,0.00048477,-0.0199641,-0.00743645,-0.00681166,-0.00743645,-0.00186079,2936.73,-3.83455,-14.6907,-3.83455,2796.52,-13.5693,-14.6907,-13.5693,2831.51,10,25,26,175,369,3110
212.01,0.0762805,0.0800488,0.00718919,-0.0232098,0.00718919,-0.0427873,-0.00106857,-0.0232098,-0.00106857,0.0176155,4685.16,-0.543036,-43.2678,-0.543036,4456.22,2.54313,-43.2678,2.54313,4568.97,10,25,114,368,436,3111
0,0,0,0,0,0,0,0,0,0,0,0,0,0,0,0,0,0,0,0,10,543,811,812,830,3112
16114.2,0.0165189,0.00353016,-0.0107896,0.000275402,-0.0107896,-0.0090327,-0.00532836,0.000275402,-0.00532836,0.0050557,-25337.2,-6953.98,226.073,-6953.98,-33733.5,-3437.62,226.073,-3437.62,-24425.2,10,441,470,487,896,3113
736.195,0.000756313,0.000682707,-0.000442486,3.92991e-06,-0.000442486,-0.000249661,-1.44326e-05,3.92991e-06,-1.44326e-05,-2.40709e-07,14325.7,-287.51,2.53515,-287.51,13721.3,-9.36542,2.53515,-9.36542,13882.8,10,542,543,544,897,3114
4737.19,0.00485207,-0.000717562,0.00262623,-0.00326591,0.00262623,-0.000406443,0.000167077,-0.00326591,0.000167077,-0.000209015,-44455.3,1709.72,-2126.26,1709.72,-44291.4,121.968,-2126.26,121.968,-44164.1,10,542,544,576,897,3115
5683.15,0.00582946,-0.000688042,0.00360148,-0.0035061,0.00360148,0.000185667,1.82718e-05,-0.0035061,1.82718e-05,6.05447e-05,-16275.6,2341.89,-2280.49,2341.89,-15747.6,25.914,-2280.49,25.914,-15833.1,10,812,830,855,897,3116
5335.71,0.0054675,-0.0014286,0.00307704,-0.00347354,0.00307704,0.000307673,6.61258e-05,-0.00347354,6.61258e-05,6.03582e-05,-36459.9,2004.97,-2263.26,2004.97,-35371.3,57.1129,-2263.26,57.1129,-35535.4,10,542,812,855,897,3117
16344.9,0.0167926,0.00719267,0.00959936,0.00389368,0.00959936,-0.0089556,-0.00590078,0.00389368,-0.00590078,0.00265742,19630,6240.58,2465.86,6240.58,9043.13,-3749.13,2465.86,-3749.13,16755.4,10,599,603,865,871,3118
14601,0.0150155,0.00582172,0.00949902,0.00442586,0.00949902,-0.000568592,-0.00591931,0.00442586,-0.00591931,-0.00386174,37427.7,6170.95,2867.48,6170.95,33517.6,-3851.45,2867.48,-3851.45,31193.4,10,599,600,866,872,3119
25482.7,0.0261768,0.00120799,-0.0182498,-0.00677379,-0.0182498,-0.00503656,-0.0103977,-0.00677379,-0.0103977,0.00525146,12788.4,-11810.2,-4440.03,-11810.2,8727.05,-6800.31,-4440.03,-6800.31,15304.9,10,467,468,485,750,3120
18322.6,0.0188161,0.00339231,-0.0123678,-0.00646749,-0.0123678,-0.00773658,-0.0047149,-0.00646749,-0.0047149,0.00508392,8802.81,-7964.65,-4136.84,-7964.65,1211.27,-3090.9,-4136.84,-3090.9,9717.08,10,468,473,727,734,3121
18495.3,0.0189702,0.00226535,-0.0114745,-0.00877662,-0.0114745,-0.00604245,-0.00576284,-0.00877662,-0.00576284,0.00378812,-15658.9,-7409.32,-5672.2,-7409.32,-21333.7,-3815.26,-5672.2,-3815.26,-14885.2,10,467,473,727,733,3122
23198.8,0.0237757,0.00234816,-0.014152,-0.0129381,-0.014152,-0.00568926,-0.0056801,-0.0129381,-0.0056801,0.00318957,-30962.4,-9189.45,-8391.3,-9189.45,-36369.2,-3734.89,-8391.3,-3734.89,-30530.1,10,467,472,473,733,3123
23069.3,0.0234823,-0.00192187,-0.00389887,-0.0159075,-0.00389887,-0.00814875,-0.00981978,-0.0159075,-0.00981978,0.00580792,-165193,-2507.99,-10562.8,-2507.99,-169334,-6346.43,-10562.8,-6346.43,-160562,10,467,485,749,750,3124
22878.7,0.023483,0.0039242,-0.0103741,-0.013207,-0.0103741,-0.00806629,-0.00891746,-0.013207,-0.00891746,0.00487358,-1088.11,-6809.41,-8688.33,-6809.41,-8503.33,-5708.33,-8688.33,-5708.33,-451.117,10,466,467,726,749,3125
28033.8,0.0287644,0.000493069,0.0209153,0.00724754,0.0209153,-0.0103002,-0.00443332,0.00724754,-0.00443332,0.0107604,-9888.56,13597.1,4699.64,13597.1,-16910.5,-2893.36,4699.64,-2893.36,-3255.81,10,597,615,864,886,3126
20008.8,0.0205655,0.012678,0.00949666,0.00462894,0.00949666,-0.0115017,-0.00770529,0.00462894,-0.00770529,0.000182181,31404.1,5960.35,2851.45,5960.35,15308.6,-5001.63,2851.45,-5001.63,23171.3,10,598,602,864,870,3127
30881.6,0.0314714,0.008091,-0.0047458,0.0197089,-0.0047458,-0.0180075,-0.0106756,0.0197089,-0.0106756,0.00699427,-135757,-3277.41,12865.3,-3277.41,-153267,-6990.62,12865.3,-6990.62,-137560,10,598,615,864,887,3128
40952.4,0.0422524,0.0148221,0.0126243,0.0287189,0.0126243,-0.0151742,-0.0108192,0.0287189,-0.0108192,0.006021,105670,8314.28,18701.1,8314.28,86682.9,-6813.96,18701.1,-6813.96,99471.8,10,598,615,616,887,3129
14083.4,0.0144845,0.00780303,0.00649767,0.00186845,0.00649767,-0.0093444,-0.00578642,0.00186845,-0.00578642,0.00296411,40563.4,4166.79,1150.85,4166.79,29290.4,-3677.3,1150.85,-3677.3,37457.6,10,603,865,870,871,3130
18052.9,0.0185036,0.00994088,0.00785281,0.00353486,0.00785281,-0.0117772,-0.0079313,0.00353486,-0.0079313,0.00140679,-24084.6,5053.5,2228.26,5053.5,-38405.6,-5094.72,2228.26,-5094.72,-29598.8,10,599,603,604,871,3131
25140,0.0257667,0.00731891,0.00505911,0.0102058,0.00505911,-0.0193645,-0.00899882,0.0102058,-0.00899882,0.0120775,-26630.3,3294.16,6675.74,3294.16,-43979.8,-5902.11,6675.74,-5902.11,-23664.2,10,598,599,865,887,3132
34250.2,0.0350658,0.0136146,0.0173168,0.0126254,0.0173168,0.000453536,-0.0165746,0.0126254,-0.0165746,-0.0138165,-44122.7,11164.6,8810.13,11164.6,-51302.7,-10299.1,8810.13,-10299.1,-62183,10,599,616,887,888,3133
20798.8,0.0212982,0.0104591,0.0083173,0.00400412,0.0083173,-0.0129539,-0.0107288,0.00400412,-0.0107288,0.00167677,-41801.5,5374.5,2570.91,5374.5,-57077.4,-7014.86,2570.91,-7014.86,-47577.3,10,600,604,605,872,3134
16647.1,0.0170738,0.00839476,0.00203349,0.000203499,0.00203349,-0.00925222,-0.0116683,0.000203499,-0.0116683,0.000740732,-12612.3,1307.74,122.299,1307.74,-24092.9,-7582.91,122.299,-7582.91,-17580.6,10,605,609,877,878,3135
15317.7,0.0157813,0.0106143,0.00572852,0.000764007,0.00572852,-0.00791817,-0.00817013,0.000764007,-0.00817013,-0.000174337,75719.4,3724.62,472.127,3724.62,63717.1,-5274.34,472.127,-5274.34,68797.2,10,604,605,872,877,3136
29990.8,0.0308452,0.0141552,0.00274294,-0.0186699,0.00274294,-0.0153588,-0.0115533,-0.0186699,-0.0115533,0.0037221,44754.9,1365.63,-12327.9,1365.63,25669.2,-7311.06,-12327.9,-7311.06,37301.6,10,483,489,748,753,3137
28033.8,0.0288238,0.0207726,-0.0135051,-0.00848046,-0.0135051,-0.0155285,-0.00534329,-0.00848046,-0.00534329,-0.00307297,42822,-8780.38,-6088.7,-8780.38,20209.1,-3753.36,-6088.7,-3753.36,27318.3,10,451,483,488,702,3138
36602.8,0.0376658,0.0135524,0.0186144,0.0119748,0.0186144,-0.00519954,-0.0214403,0.0119748,-0.0214403,-0.00474728,53935.1,12102.8,8280.73,12102.8,43134.6,-13707.4,8280.73,-13707.4,41943,10,598,599,616,887,3139
26779.2,0.0275164,0.0161584,0.0124666,0.0031013,0.0124666,-0.0142891,-0.0130636,0.0031013,-0.0130636,-0.000173274,27545.2,8374.37,2303.99,8374.37,8762.71,-8651.86,2303.99,-8651.86,16865.4,10,600,867,888,889,3140
34361.8,0.0352697,-0.00486648,0.0254569,0.013313,0.0254569,-0.00325105,-0.00646891,0.013313,-0.00646891,0.00992392,-8226.26,16316.7,9024.79,16316.7,-3923.06,-3917.51,9024.79,-3917.51,2743.51,10,615,620,887,892,3141
35719.5,0.0368987,0.0122146,0.0203038,0.00508944,0.0203038,-0.0106017,-0.0211891,0.00508944,-0.0211891,0.00420998,127143,13222.4,4191.51,13222.4,114845,-13966.4,4191.51,-13966.4,121278,10,616,617,621,893,3142
31706.6,0.0325803,0.0101902,-0.0207751,-0.00622247,-0.0207751,-0.011734,-0.0141021,-0.00622247,-0.0141021,0.00372846,23524.3,-13699.6,-4984,-13699.6,12056.9,-9426.53,-4984,-9426.53,19384.9,10,483,488,701,753,3143
17675,0.0182128,0.00819609,-0.012274,0.0038775,-0.012274,-0.00898241,0.0020483,0.0038775,0.0020483,0.00352721,77357.5,-7817.29,2528.17,-7817.29,65944,1410.39,2528.17,1410.39,74147.5,10,518,522,523,787,3144
28656.4,0.0292783,0.00658899,-0.0192399,-0.00953496,-0.0192399,0.00363857,-0.00918301,-0.00953496,-0.00918301,-0.0117968,-88379.6,-12363.2,-6744.33,-12363.2,-89147.9,-5518.96,-6744.33,-5518.96,-100355,10,483,724,747,748,3145
15263.8,0.0157184,0.00520506,-0.00950685,2.01656e-06,-0.00950685,-0.00129108,-0.00894218,2.01656e-06,-0.00894218,-0.00167978,63087.7,-6161.01,0.285193,-6161.01,58989.5,-5808.76,0.285193,-5808.76,58738.7,10,471,472,732,738,3146
19577.5,0.0200456,0.00548873,-0.00206588,-0.00136429,-0.00206588,-0.00996554,-0.0149827,-0.00136429,-0.0149827,0.00351917,-46970.2,-1346.95,-891.857,-1346.95,-57097.7,-9724.82,-891.857,-9724.82,-48185.6,10,454,455,476,737,3147
10293.3,0.0105909,0.00497427,0.00810431,0.000231102,0.00810431,-0.00303029,0.00131434,0.000231102,0.00131434,-0.000420217,46862.7,5191.69,178.195,5191.69,41458.9,873.394,178.195,873.394,43262.5,10,577,580,828,859,3148
11228.9,0.0115724,0.00888554,-0.00576099,0.000785607,-0.00576099,-0.00705907,0.00174995,0.000785607,0.00174995,0.000708649,80754.3,-3635.54,501.411,-3635.54,70315.3,1145.16,501.411,1145.16,75396.9,10,517,521,522,786,3149
15325.1,0.0157053,0.00609409,0.00140461,0.000436915,0.00140461,-0.00918142,-0.01092,0.000436915,-0.01092,0.00242391,-29483.5,980.557,320.622,980.557,-39397.4,-7102.15,320.622,-7102.15,-31865.9,10,454,609,706,878,3150
16647.4,0.0170728,0.0101062,0.00500778,0.00639132,0.00500778,-0.00817538,-0.00812467,0.00639132,-0.00812467,-0.00209402,-12877.7,3230.96,4101.96,3230.96,-24871.3,-5281.09,4101.96,-5281.09,-20819.9,10,599,604,871,872,3151
15109.7,0.0155121,0.00546483,0.000851295,0.000404939,0.000851295,-0.00937749,-0.0105571,0.000404939,-0.0105571,0.00430149,4261.09,561.06,263.924,561.06,-5477.93,-6787.97,263.924,-6787.97,3608.76,10,455,609,706,881,3152
17447.1,0.0179388,0.00546202,-0.00135513,-0.00121075,-0.00135513,-0.00820172,-0.0134607,-0.00121075,-0.0134607,0.00415742,33353.8,-872.468,-782.046,-872.468,24412.6,-8691.48,-782.046,-8691.48,32584.4,10,455,476,737,742,3153
17622.7,0.0180846,0.00492806,0.00264087,-0.000324275,0.00264087,-0.0113454,-0.0118035,-0.000324275,-0.0118035,0.0066932,-3945.43,1715.04,-234.404,1715.04,-14675.2,-7546.64,-234.404,-7546.64,-2649.3,10,455,609,612,881,3154
21603.5,0.0221609,0.00775159,-0.00301763,-0.00333414,-0.00301763,-0.0113002,-0.0157123,-0.00333414,-0.0157123,0.00383462,-9917.3,-1924.09,-2144.25,-1924.09,-22371.4,-10194.2,-2144.25,-10194.2,-12440.4,10,454,471,476,737,3155
20627,0.0211562,0.00432783,-0.0149819,0.00269219,-0.0149819,-0.0098251,-0.00552439,0.00269219,-0.00552439,0.0056278,-14817.3,-9691.81,1773.57,-9691.81,-24148.1,-3602.58,1773.57,-3602.58,-14004.7,10,718,729,752,896,3156
18441.6,0.0189166,0.00488229,-0.00324684,-0.000198528,-0.00324684,-0.00982861,-0.0136039,-0.000198528,-0.0136039,0.00500249,-12550.6,-2096.4,-104.837,-2096.4,-22225.8,-8785.23,-104.837,-8785.23,-12375.6,10,455,476,480,742,3157
19358.7,0.0200457,0.0174041,-0.00257857,0.00441047,-0.00257857,-0.0147031,-0.00406741,0.00441047,-0.00406741,0.00308974,177676,-1116.44,2916.8,-1116.44,156993,-2814.88,2916.8,-2814.88,168286,10,624,803,804,808,3158
44267.2,0.0447266,0.0300952,-0.00997,-0.00483874,-0.00997,-0.0426253,-0.00217251,-0.00483874,-0.00217251,0.006074,-287882,-6627.58,-3468.07,-6627.58,-335663,-2188.27,-3468.07,-2188.27,-303702,10,450,488,492,807,3159
40360.2,0.0404665,0.0237944,-0.00394559,0.00921477,-0.00394559,-0.0412272,-0.000291023,0.00921477,-0.000291023,0.00584105,-440068,-2129.42,6122.33,-2129.42,-483343,-1162.48,6122.33,-1162.48,-451995,10,450,624,804,808,3160
29463.1,0.0303728,0.0236995,-0.00462872,0.00978407,-0.00462872,-0.0238258,-0.00213204,0.00978407,-0.00213204,0.00400574,95390.1,-2713.73,6345.2,-2713.73,64651,-1799.87,6345.2,-1799.87,82630,10,450,621,624,804,3161
17552.2,0.0180254,0.00949047,0.00362253,0.00262752,0.00362253,-0.00913816,-0.0117001,0.00262752,-0.0117001,0.000358966,13058.9,2376.5,1721.37,2376.5,977.269,-7588.47,1721.37,-7588.47,7149.55,10,454,605,609,878,3162
35394.3,0.036217,0.0302392,-0.0128187,-0.00375969,-0.0128187,-0.0253832,0.00375779,-0.00375969,0.00375779,-0.00486257,-43732.2,-8240.2,-2966.34,-8240.2,-80092.5,1966,-2966.34,1966,-66329,10,450,488,702,807,3163
15154,0.0155113,0.010583,-0.00712975,-0.00324365,-0.00712975,-0.0108967,-0.00186158,-0.00324365,-0.00186158,-0.0010843,-49997.9,-4894.94,-2326.91,-4894.94,-63441.2,-1350.71,-2326.91,-1350.71,-57429,10,488,700,701,807,3164
20512,0.0209808,0.0117526,0.000175423,-0.00180781,0.000175423,-0.00726778,-0.0146208,-0.00180781,-0.0146208,-0.00599833,-62716.3,79.4038,-1207.29,79.4038,-74976.8,-9529.22,-1207.29,-9529.22,-74431.4,10,453,454,471,731,3165
15550.5,0.0159763,0.00493139,-0.00363133,-0.00561632,-0.00363133,-0.0100931,-0.00810324,-0.00561632,-0.00810324,0.00601094,18107.4,-2263.92,-3578.51,-2263.92,8145.91,-5218.58,-3578.51,-5218.58,18774.7,10,468,474,734,735,3166
17638.3,0.0180599,0.00287719,-0.00778205,-0.00680513,-0.00778205,-0.00990494,-0.00818879,-0.00680513,-0.00818879,0.00594877,-48754.8,-5035.85,-4369.7,-5035.85,-57306.1,-5291.83,-4369.7,-5291.83,-46793.9,10,468,473,474,734,3167
16386.7,0.0168082,0.00374906,-0.00749365,-0.00278636,-0.00749365,-0.0111927,-0.00715278,-0.00278636,-0.00715278,0.00736769,-13780.8,-4783.54,-1743.55,-4783.54,-23715.4,-4617.85,-1743.55,-4617.85,-11484.5,10,468,469,487,728,3168
17412.6,0.0177958,0.00668688,-0.00575599,0.000885275,-0.00575599,-0.0099262,-0.0115,0.000885275,-0.0115,0.0010367,-82017.6,-3706.1,648.405,-3706.1,-93087.1,-7414.57,648.405,-7414.57,-85576.5,10,472,477,478,739,3169
16663.2,0.0170911,0.00107129,-0.00862742,-0.0068088,-0.00862742,-0.00805061,-0.0064477,-0.0068088,-0.0064477,0.00689003,-16357.8,-5538.66,-4382.4,-5538.66,-22547.1,-4240.4,-4382.4,-4240.4,-12718.8,10,468,486,750,751,3170
24286.1,0.0249196,0.0012216,-0.0180514,-0.00660884,-0.0180514,-0.00746796,-0.00662286,-0.00660884,-0.00662286,0.00689716,-8848.93,-11716,-4289.11,-11716,-14571.3,-4324.16,-4289.11,-4324.16,-5215.87,10,468,485,486,750,3171
18847.4,0.0193527,0.00476004,-0.0132887,-0.000149045,-0.0132887,-0.0104401,-0.00426558,-0.000149045,-0.00426558,0.00637848,7297.82,-8543.19,-66.3234,-8543.19,-2834.76,-2785.61,-66.3234,-2785.61,8229.08,10,441,718,719,752,3172
14028.6,0.0143817,0.00317136,-0.00725339,-0.00331046,-0.00725339,-0.00850953,-0.00622342,-0.00331046,-0.00622342,0.00482332,-24538.9,-4650.83,-2077.55,-4650.83,-32386.3,-4008.34,-2077.55,-4008.34,-23505.4,10,468,469,475,735,3173
15356.2,0.0157579,0.00408267,-0.00943672,-0.0018431,-0.00943672,-0.00865588,-0.00607982,-0.0018431,-0.00607982,0.00469602,-5467.37,-6063.87,-1123.94,-6063.87,-14006.6,-3905.44,-1123.94,-3905.44,-5125.45,10,469,475,729,735,3174
17372,0.017857,0.00380485,-0.0130739,0.000589807,-0.0130739,-0.00599619,-0.00608114,0.000589807,-0.00608114,0.00344887,27430.9,-8434.1,442.826,-8434.1,20846.2,-3927.23,442.826,-3927.23,27139.9,10,718,729,730,896,3175
17546.5,0.01804,0.00297633,-0.0116241,0.000269807,-0.0116241,-0.00810163,-0.00712351,0.000269807,-0.00712351,0.00651451,30749.3,-7485.55,213.867,-7485.55,23363.6,-4611.16,213.867,-4611.16,32967.6,10,469,470,487,896,3176
21198.1,0.0217113,0.00991191,0.00432427,0.00304555,0.00432427,-0.00874883,-0.0153802,0.00304555,-0.0153802,-0.00183863,-38545.6,2863.33,2043.19,2863.33,-50549.2,-10020.8,2043.19,-10020.8,-46257.2,10,453,454,605,705,3177
13410.7,0.0137507,0.00237251,-0.0091589,-0.0012856,-0.0091589,-0.0056685,-0.00577346,-0.0012856,-0.00577346,0.00286076,-21577.7,-5900.1,-770.588,-5900.1,-27086.8,-3741.09,-770.588,-3741.09,-21352.1,10,470,475,729,736,3178
14816.8,0.0152088,0.00638069,-0.00677417,-0.00243613,-0.00677417,-0.00923408,-0.00733446,-0.00243613,-0.00733446,0.00312514,1654.66,-4274.07,-1491.5,-4274.07,-8770.37,-4736.18,-1491.5,-4736.18,-515.534,10,468,474,475,735,3179
27902.9,0.0285969,0.000450577,0.0208576,0.00764839,0.0208576,-0.00975191,-0.00515708,0.00764839,-0.00515708,0.00954588,-32241.1,13568.1,4981.04,13568.1,-38878.8,-3388.55,4981.04,-3388.55,-26374.9,10,597,614,615,886,3180
22020.6,0.0226187,0.00288963,0.013752,0.00635354,0.013752,-0.0119877,-0.00512528,0.00635354,-0.00512528,0.0102106,12744.9,8791.34,4030.59,8791.34,2508.83,-3320.69,4030.59,-3320.69,17251.9,10,596,614,863,885,3181
19433.6,0.0199366,0.00125881,0.00833435,0.0102081,0.00833435,-0.0105271,-0.00485283,0.0102081,-0.00485283,0.00945378,-12435.7,5331.67,6596.37,5331.67,-20386.9,-3215.44,6596.37,-3215.44,-7278.16,10,597,614,863,886,3182
21551.8,0.0219913,-0.00403234,7.76831e-05,0.0146292,7.76831e-05,-0.010002,-0.00548246,0.0146292,-0.00548246,0.0111262,-119275,85.2941,9760.09,85.2941,-123355,-3369.5,9760.09,-3369.5,-109820,10,615,619,891,892,3183
20759.1,0.0213581,0.0124213,0.00936828,0.00615314,0.00936828,-0.0112263,-0.00875683,0.00615314,-0.00875683,0.000817964,50617.2,5871.57,3826.79,5871.57,34872.2,-5704.32,3826.79,-5704.32,42932.7,10,597,598,602,864,3184
15719.6,0.0161257,0.00225374,0.00818306,0.00610908,0.00818306,-0.00998023,-0.00299028,0.00610908,-0.00299028,0.00767611,-12741.6,5258.71,3885.8,5258.71,-20991.1,-1864.6,3885.8,-1864.6,-9291.72,10,597,601,863,869,3185
17170.5,0.0176262,0.010996,0.0029854,0.00480398,0.0029854,-0.0114226,-0.00865929,0.00480398,-0.00865929,0.000868649,6268.87,1642.21,2949.97,1642.21,-8552.9,-5636.11,2949.97,-5636.11,-388.907,10,597,602,864,869,3186
22120.7,0.0227336,0.00319682,0.0127013,0.0071708,0.0127013,-0.0127061,-0.00542925,0.0071708,-0.00542925,0.0109455,23112.6,8083.83,4557.96,8083.83,12230.4,-3531.73,4557.96,-3531.73,27904.8,10,596,597,614,863,3187
16880.3,0.0173891,0.00815028,-0.0108511,0.00252338,-0.0108511,-0.0104441,0.00208583,0.00252338,0.00208583,0.00482405,71979.8,-6862.89,1625.85,-6862.89,59601.4,1428.76,1625.85,1428.76,69621.3,10,518,782,786,787,3188
22044.9,0.0226108,0.00395212,-0.0171391,-0.00353736,-0.0171391,-0.00936613,-0.00308785,-0.00353736,-0.00308785,0.00565246,-14566.2,-11022.5,-2244.07,-11022.5,-23824.6,-2059.6,-2244.07,-2059.6,-13776.3,10,442,519,523,720,3189
21720.3,0.0222992,0.00448088,-0.0162417,-0.00555661,-0.0162417,-0.00923405,-0.00321641,-0.00555661,-0.00321641,0.0055419,4182.66,-10426.6,-3546.82,-10426.6,-5330.31,-2135.47,-3546.82,-2135.47,4558.4,10,442,523,719,720,3190
16271.3,0.0166634,0.00294293,-0.0110224,-0.000409058,-0.0110224,-0.00850098,-0.00600689,-0.000409058,-0.00600689,0.00452198,-44916.1,-7120.84,-218.48,-7120.84,-52593.7,-3889.62,-218.48,-3889.62,-43969.7,10,470,729,730,896,3191
25559,0.0262132,0.00461925,0.0202288,0.00448448,0.0202288,-0.0104557,-0.000952785,0.00448448,-0.000952785,0.00629792,-15562.6,13039.9,2846.69,13039.9,-26013.7,-639.332,2846.69,-639.332,-14814,10,551,575,579,833,3192
22051.6,0.0226446,0.00460331,0.0156395,0.0078747,0.0156395,-0.00976493,-0.00108269,0.0078747,-0.00108269,0.00611297,8842.7,10019.7,5046.6,10019.7,-1160.33,-727.96,5046.6,-727.96,9502.42,10,551,579,832,833,3193
31555.8,0.0324543,0.0123155,-0.0087242,-0.0219359,-0.0087242,-0.00462081,-0.0116118,-0.0219359,-0.0116118,-0.00500495,42893.9,-5688.32,-14434.5,-5688.32,32583,-7149.61,-14434.5,-7149.61,31370.7,10,466,483,484,748,3194
26662.4,0.0274024,0.00273268,-0.0125747,-0.0163632,-0.0125747,-0.00608502,-0.0101106,-0.0163632,-0.0101106,0.00517118,23005.1,-8235.6,-10826.3,-8235.6,18139.5,-6325.18,-10826.3,-6325.18,24815.1,10,484,485,749,754,3195
9788.13,0.0100115,0,0.00802441,0,0.00802441,-0.00205581,-0.00306141,0,-0.00306141,0,-70931,5218.73,-32.0239,5218.73,-72451.1,-1991.01,-32.0239,-1991.01,-71002.8,10,548,549,826,831,3196
27967.5,0.0286278,0.00673512,-0.0133207,-0.0134753,-0.0133207,-0.0112664,-0.0127035,-0.0134753,-0.0127035,0.00403877,-52770.3,-8971.57,-9456.71,-8971.57,-62215.4,-8063.02,-9456.71,-8063.02,-54255.5,10,489,748,753,754,3197
37591.2,0.0383633,0.0163497,-0.00754984,-0.0139704,-0.00754984,-0.0271102,-0.0174921,-0.0139704,-0.0174921,0.00946618,-104225,-5923.8,-9889.96,-5923.8,-130777,-11799.1,-9889.96,-11799.1,-109256,10,483,488,489,753,3198
14074,0.0144215,0.00846617,0.00278203,0.00445836,0.00278203,-0.00822913,-0.00763196,0.00445836,-0.00763196,-0.00102913,-30134.9,1823.11,2894.73,1823.11,-41039.7,-4943.86,2894.73,-4943.86,-36262.6,10,604,872,876,877,3199
14994.8,0.0154311,0.00828245,-0.000338713,-0.00365401,-0.000338713,-0.00381142,-0.0109821,-0.00365401,-0.0109821,-0.00264791,52321.8,-176.861,-2339.3,-176.861,44551,-7117.52,-2339.3,-7117.52,45109.8,10,454,471,731,737,3200
20658.4,0.021208,0.00731891,0.0074623,0.0130698,0.0074623,-0.00849167,-0.00680755,0.0130698,-0.00680755,0.00185795,5018.3,4886.18,8422.09,4886.18,-5439.16,-4398.41,8422.09,-4398.41,1303.79,10,598,599,603,865,3201
17508.5,0.0179149,0.00786836,0.00363263,-0.00050063,0.00363263,-0.0140974,-0.00927772,-0.00050063,-0.00927772,0.00473938,-58574.8,2363.79,-340.14,2363.79,-72956,-5974.52,-340.14,-5974.52,-60546.1,10,605,608,609,877,3202
12560.3,0.0128831,0.00291999,-0.00799999,-0.00526019,-0.00799999,-0.00214491,-0.00507112,-0.00526019,-0.00507112,-0.00104326,-14899.3,-5244.77,-3414.43,-5244.77,-18138.6,-3252.17,-3414.43,-3252.17,-17333.7,10,472,473,733,739,3203
28043,0.028721,0.00837026,-0.00261729,-0.00555839,-0.00261729,-0.0183371,-0.0181557,-0.00555839,-0.0181557,0.00981297,-40165.1,-1894.23,-3786.88,-1894.23,-57568.9,-11715.3,-3786.88,-11715.3,-39186.5,10,465,466,471,732,3204
25239.4,0.025769,0.0039242,-0.0105634,-0.0134327,-0.0105634,-0.0116303,-0.0108063,-0.0134327,-0.0108063,0.00543342,-103384,-6974.5,-8918.78,-6974.5,-113130,-7005.91,-8918.78,-7005.91,-102429,10,466,467,472,726,3205
21356.7,0.0219656,0.00736835,-0.010128,0.00376251,-0.010128,-0.00933326,-0.0129511,0.00376251,-0.0129511,0.0038135,40669.3,-6516.72,2507.55,-6516.72,29722.9,-8332.47,2507.55,-8332.47,38614.4,10,471,472,477,738,3206
16577.2,0.0169815,0.00653095,-0.00388794,0.00197232,-0.00388794,-0.00491861,-0.0126858,0.00197232,-0.0126858,-0.00246607,-37382.4,-2597.86,1190.41,-2597.86,-44594.1,-8285.92,1190.41,-8285.92,-43297.1,10,471,724,731,732,3207
11333.7,0.0116009,0,-0.0100004,0,-0.0100004,-0.00156179,0.000336818,0,0.000336818,0,-56653.9,-6501.94,-4.38768,-6501.94,-57931.8,218.987,-4.38768,218.987,-56784,10,508,772,773,788,3208
26729.3,0.0274537,0.000283627,0.0193168,0.00599878,0.0193168,-0.0109886,-0.0047126,0.00599878,-0.0047126,0.0121561,9562.42,12547.7,3923.04,12547.7,2350.6,-3084.12,3923.04,-3084.12,17288,10,614,615,886,891,3209
47416.4,0.0485113,0.0146119,0.00984879,0.0262679,0.00984879,-0.0315179,-0.0143491,0.0262679,-0.0143491,0.0183867,-57115,6600.86,17488.8,6600.86,-86410.5,-9747.94,17488.8,-9747.94,-55291.6,10,615,616,620,887,3210
11609.3,0.0119265,0.00606557,0.00587839,-0.000374185,0.00587839,-0.00868088,0.00326479,-0.000374185,0.00326479,0.00326277,17891.9,3687.31,-201.45,3687.31,8136.59,2134.74,-201.45,2134.74,15983.9,10,573,577,856,857,3211
18396,0.0188446,0.0106034,0.0106921,-0.000193483,0.0106921,-0.0135812,0.00107706,-0.000193483,0.00107706,0.0022241,-34476.5,6712.76,-118.007,6712.76,-50627.6,763.65,-118.007,763.65,-40144.5,10,578,579,858,860,3212
16164.5,0.0165205,0.00644279,0.0107873,0.000298188,0.0107873,-0.0111286,0.00186344,0.000298188,0.00186344,0.00242516,-81730.8,6892.29,200.327,6892.29,-93516.4,1273.61,200.327,1273.61,-84522.3,10,578,579,581,860,3213
13514.4,0.0138572,0.00806537,0.0087098,-0.00137081,0.0087098,-0.00812698,0.000831004,-0.00137081,0.000831004,-0.000366506,-17697.5,5522.61,-878.632,5522.61,-28515,579.681,-878.632,579.681,-23336.2,10,577,578,857,859,3214
8958.12,0.00920952,-0.0028937,-0.00636396,0.00133772,-0.00636396,0.000727707,0.00347205,0.00133772,0.00347205,0.00315545,25792.2,-4113.13,898.196,-4113.13,28156.7,2273.32,898.196,2273.32,29690.5,10,517,781,785,786,3215
17155.2,0.0175248,0.00544548,-0.0112975,0.00272452,-0.0112975,-0.0120756,7.72044e-06,0.00272452,7.72044e-06,0.00414192,-91382.7,-7222.59,1807.15,-7222.59,-103187,106.448,1807.15,106.448,-92441.7,10,522,786,787,789,3216
15569.4,0.0159266,0.00641575,-0.00978001,0.00299898,-0.00978001,-0.0107691,0.00203979,0.00299898,0.00203979,0.00260094,-64448.8,-6232.92,1956.25,-6232.92,-75935.2,1409.8,1956.25,1409.8,-67115.9,10,517,518,522,786,3217
19227.9,0.0197101,0.00467113,-0.0149824,0.00454845,-0.0149824,-0.00786995,0.000368132,0.00454845,0.000368132,0.00290011,-25387,-9666.35,3021.84,-9666.35,-33813,326.443,3021.84,326.443,-26695.7,10,522,523,525,789,3218
12216,0.0124734,0.000731561,-0.0091721,-0.0011263,-0.0091721,-0.00671628,0.00234484,-0.0011263,0.00234484,0.00298938,-103449,-5946.86,-722.54,-5946.86,-108471,1572.99,-722.54,1572.99,-102057,10,521,785,786,788,3219
15797.4,0.0162157,0.00641594,-0.00982305,0.00340797,-0.00982305,-0.010633,0.00128936,0.00340797,0.00128936,0.00454905,2141.86,-6241.3,2221.11,-6241.3,-9227.67,922.739,2221.11,922.739,745.703,10,518,522,786,787,3220
20725.6,0.021331,-0.000271029,-0.0160318,-0.00458121,-0.0160318,-0.00665886,1.59768e-05,-0.00458121,1.59768e-05,0.00915067,49073.3,-10348.4,-2954.8,-10348.4,44538.4,-8.46478,-2954.8,-8.46478,54970.7,10,519,720,783,787,3221
19375,0.0198484,0.00736296,-0.0137439,0.00329655,-0.0137439,-0.011211,0.000874754,0.00329655,0.000874754,0.00318265,-35679.2,-8805.88,2183.62,-8805.88,-48129.1,670.578,2183.62,670.578,-38609.4,10,522,523,787,789,3222
17533.6,0.0179867,0.0048202,-0.0114332,-0.00455391,-0.0114332,-0.0101706,-0.00363834,-0.00455391,-0.00363834,0.00540591,-10808.4,-7348.61,-2913.55,-7348.61,-20838.6,-2368.51,-2913.55,-2368.51,-10563.2,10,441,442,523,719,3223
22850,0.0233745,-0.000268828,-0.0175199,0.00602094,-0.0175199,-0.00769303,0.00387348,0.00602094,0.00387348,0.00666721,-68428.1,-11313.9,4000.39,-11313.9,-73814.5,2732.15,4000.39,2732.15,-64342.8,10,518,519,783,787,3224
16392.2,0.0168596,0.00899977,0.0103515,-0.00226781,0.0103515,-0.00965162,0.00343333,-0.00226781,0.00343333,0.00220183,41957.9,6550.67,-1444.15,6550.67,29553.3,2290.76,-1444.15,2290.76,37357.7,10,574,853,857,858,3225
20343.7,0.0209502,0.000327964,0.0152696,0.00524208,0.0152696,-0.00715681,6.5597e-05,0.00524208,6.5597e-05,0.0093761,60768.3,9838.04,3360.29,9838.04,55492.4,45.991,3360.29,45.991,66421.7,10,575,833,854,858,3226
16031.5,0.0164491,0.00432136,-0.00979234,-0.00141861,-0.00979234,-0.00990668,-0.00552316,-0.00141861,-0.00552316,0.00567704,-7409.61,-6285.4,-881.147,-6285.4,-16881.8,-3577.52,-881.147,-3577.52,-6625.32,10,469,729,752,896,3227
19068.9,0.0195165,0.00490969,0.011329,0.00694952,0.011329,-0.0123828,-0.00108631,0.00694952,-0.00108631,0.00622708,-55348.2,7261.46,4482.5,7261.46,-66966.1,-695.653,4482.5,-695.653,-54640.1,10,550,551,579,832,3228
19534.8,0.0200243,0.00294303,-0.0133752,-0.00640689,-0.0133752,-0.00850804,-0.00513135,-0.00640689,-0.00513135,0.00528083,-26742.6,-8634.2,-4109.06,-8634.2,-34555.3,-3370.9,-4109.06,-3370.9,-25410.9,10,467,468,473,727,3229
12345.4,0.0126747,0.00317819,-0.00511097,-0.00364981,-0.00511097,-0.00645511,-0.0069858,-0.00364981,-0.0069858,0.00356953,3631.64,-3323.49,-2320.25,-3323.49,-2765.73,-4471.56,-2320.25,-4471.56,3960.27,10,473,474,479,734,3230
15615.7,0.016061,0.00576134,-0.00786941,-0.000583662,-0.00786941,-0.00725144,-0.00917471,-0.000583662,-0.00917471,0.00300595,39852.3,-5107.25,-314.841,-5107.25,31248.2,-5854.69,-314.841,-5854.69,38185.7,10,472,473,478,739,3231
16457.7,0.0169549,0.00282643,-0.00842412,-0.00945996,-0.00842412,-0.00277373,-0.00672845,-0.00945996,-0.00672845,0.00249529,69586.9,-5466.14,-6129.59,-5466.14,66024.5,-4332.84,-6129.59,-4332.84,69438.5,10,472,726,732,733,3232
11964.4,0.0122845,0.00352584,-0.00504374,-0.00155082,-0.00504374,-0.00647827,-0.00726448,-0.00155082,-0.00726448,0.00328131,5495.54,-3274.02,-958.585,-3274.02,-1135.25,-4644.65,-958.585,-4644.65,5426.31,10,473,479,734,740,3233
14474.4,0.014844,0.00157215,-0.00395229,-0.00767813,-0.00395229,-0.00742608,-0.00681097,-0.00767813,-0.00681097,0.00556762,-18846,-2547.17,-4954.7,-2547.17,-24854.6,-4414.07,-4954.7,-4414.07,-16294.3,10,468,728,734,735,3234
12543.5,0.0128591,0.0067497,-0.00385525,0.000933609,-0.00385525,-0.00758082,-0.00753625,0.000933609,-0.00753625,0.000248087,-22387.4,-2420.21,667.224,-2420.21,-31889.9,-4844.21,667.224,-4844.21,-26583.6,10,474,475,735,741,3235
14363.7,0.0147611,0.00806952,0.00795369,0.00116963,0.00795369,-0.00848919,-0.00542231,0.00116963,-0.00542231,0.00137621,25412.2,5099.66,691.791,5099.66,14474.2,-3457.26,691.791,-3457.26,21071.9,10,602,603,606,870,3236
25660.1,0.026267,0.0037884,-0.0161945,-0.00755092,-0.0161945,-0.00916973,-0.0117436,-0.00755092,-0.0117436,0.00471836,-53192.3,-10602.2,-5059.75,-10602.2,-61107.4,-7646.88,-5059.75,-7646.88,-52458.6,10,466,472,726,732,3237
17776.5,0.0182127,0.00603785,0.0044083,0.0111594,0.0044083,-0.00885105,-0.00672801,0.0111594,-0.00672801,0.00211148,-34614.8,2862.77,7200.03,2862.77,-44543.2,-4363.23,7200.03,-4363.23,-37376.2,10,598,603,865,870,3238
16882.6,0.0173702,0.0100604,0.00731828,-0.00184082,0.00731828,-0.0107569,-0.00763647,-0.00184082,-0.00763647,0.00249369,49616,4694.18,-1229.51,4694.18,35944.3,-4844.48,-1229.51,-4844.48,44726.1,10,604,607,871,876,3239
24125.9,0.024776,0.00373333,0.0160306,0.00516455,0.0160306,-0.0135281,-0.00431707,0.00516455,-0.00431707,0.0109403,9343.8,10212.4,3272.23,10212.4,-2599.76,-2809.37,3272.23,-2809.37,13686.8,10,613,614,885,890,3240
18993.4,0.0194926,0.00122765,0.00941725,0.00940793,0.00941725,-0.00961333,-0.00472265,0.00940793,-0.00472265,0.00877932,-4943.17,6049.57,6075.12,6049.57,-12295.5,-3115.74,6075.12,-3115.74,-218.669,10,614,863,885,886,3241
28824.2,0.0295008,-0.000880467,0.0220438,0.00594892,0.0220438,-0.0100697,-0.00506554,0.00594892,-0.00506554,0.0104593,-59600,14377,3926.74,14377,-65295.1,-3329.75,3926.74,-3329.75,-52108.7,10,614,618,619,891,3242
20814.4,0.0213717,0.00511898,-0.0110342,-0.00171932,-0.0110342,-0.0100132,-0.0117682,-0.00171932,-0.0117682,0.00569862,6696.02,-7162.98,-1191.2,-7162.98,-2929,-7726.03,-1191.2,-7726.03,7031.35,10,466,471,472,732,3243
29180.2,0.0299089,-0.00437097,0.0201833,0.0153413,0.0201833,-0.000667205,-0.0018977,0.0153413,-0.0018977,0.00544711,-34812.7,12786.6,10257.8,12786.6,-29675.5,-833.585,10257.8,-833.585,-27402,10,620,887,892,893,3244
43217.6,0.0439626,0.00638368,-0.0241883,-0.0132486,-0.0241883,-0.0197239,-0.0203999,-0.0132486,-0.0203999,0.0108547,-174314,-16348.1,-9544.82,-16348.1,-188211,-13322.9,-9544.82,-13322.9,-170523,10,484,489,490,754,3245
18244.5,0.0187479,0.00294303,-0.0121313,-0.00492441,-0.0121313,-0.00902172,-0.00463211,-0.00492441,-0.00463211,0.00720034,20840,-7811.79,-3156.01,-7811.79,12806.6,-3017.34,-3156.01,-3017.34,23471,10,467,468,727,750,3246
12704.5,0.0130699,-0.00198071,-0.00589919,0.00804673,-0.00589919,0.001281,0.00486723,0.00804673,0.00486723,0.00222927,39594.7,-3795.1,5238.65,-3795.1,41636.3,3180.97,5238.65,3180.97,42159.3,10,517,776,780,781,3247
25368.7,0.0260881,0.00495212,-0.00846541,-0.016046,-0.00846541,-0.00721348,-0.0115927,-0.016046,-0.0115927,0.00432276,36096.6,-5516.47,-10653.8,-5516.47,28741.4,-7353.77,-10653.8,-7353.77,35411.9,10,466,725,748,749,3248
21222.8,0.0218032,0.000232565,-0.0137083,-0.0085554,-0.0137083,-0.00633255,-0.00701183,-0.0085554,-0.00701183,0.00726736,14473.4,-8847.8,-5520.15,-8847.8,9873.85,-4617.38,-5520.15,-4617.38,18830.4,10,491,750,755,756,3249
16628.2,0.0170757,0.00337253,-0.00976026,-0.00729555,-0.00976026,-0.00778778,-0.00464091,-0.00729555,-0.00464091,0.0050421,8251.75,-6257.69,-4673.09,-6257.69,643.921,-3049.23,-4673.09,-3049.23,9160.19,10,468,727,728,734,3250
24968.1,0.0255917,0.00132977,-0.0177393,-0.0071893,-0.0177393,-0.00901564,-0.00730321,-0.0071893,-0.00730321,0.00774261,-29338,-11441.5,-4615.35,-11441.5,-36680.7,-4822.59,-4615.35,-4822.59,-25488.1,10,486,487,491,756,3251
17083.7,0.0175118,0.00337252,-0.00853525,-0.00583564,-0.00853525,-0.0109554,-0.0056426,-0.00583564,-0.0056426,0.0071535,-26527,-5448.04,-3747.29,-5448.04,-36111.4,-3697.51,-3747.29,-3697.51,-24193.8,10,468,727,728,751,3252
26176.9,0.0268517,0.0013527,-0.0192147,-0.00796761,-0.0192147,-0.00817888,-0.00678344,-0.00796761,-0.00678344,0.00745131,-14508.5,-12458,-5181.57,-12458,-20855.3,-4461.64,-5181.57,-4461.64,-10671.4,10,485,486,491,750,3253
16588.2,0.0170548,-9.78243e-06,-0.00121627,-0.0124232,-0.00121627,-0.00510525,-0.00536729,-0.0124232,-0.00536729,0.00644834,28971.9,-773.325,-8106.07,-773.325,25524.1,-3453.12,-8106.07,-3453.12,32865.9,10,467,726,727,750,3254
23280.8,0.0239605,0.00289947,-0.0153713,0.0086527,-0.0153713,-0.00833884,0.00712283,0.0086527,0.00712283,0.00783318,50819.4,-9843.62,5611.51,-9843.62,43136.3,4764.22,5611.51,4764.22,53646.6,10,514,518,519,783,3255
17920.2,0.0184043,-0.00717775,-0.00505621,0.0114941,-0.00505621,0.00422885,0.00740783,0.0114941,0.00740783,0.00370903,3264.6,-3180.27,7538.99,-3180.27,10674,4809.87,7538.99,4809.87,10084.6,10,513,777,781,782,3256
15765.2,0.0161452,-0.00400729,-0.00708035,0.0103788,-0.00708035,0.00281521,0.00508291,0.0103788,0.00508291,0.000134062,-49303.3,-4596.02,6767.5,-4596.02,-45022.4,3363.34,6767.5,3363.34,-46856.4,10,513,517,776,781,3257
13297,0.0136602,0.00272262,-0.00639927,0.00429842,-0.00639927,-0.000371097,0.00868737,0.00429842,0.00868737,-0.00164894,15313.8,-4077.69,2725.81,-4077.69,13163.3,5702.58,2725.81,5702.58,12338,10,512,517,776,780,3258
14228.6,0.0146613,-0.00249445,0.00356661,-0.0110863,0.00356661,0.00361439,0.00400055,-0.0110863,0.00400055,0.00143297,70018.9,2258.72,-7200.79,2258.72,73872,2603.34,-7200.79,2603.34,72303.1,10,558,837,838,841,3259
7208.58,0.00738909,-0.000984359,0.00337587,-0.00493194,0.00337587,0.00194036,0.00118011,-0.00493194,0.00118011,-0.00177854,-29702.3,2188.79,-3201.13,2188.79,-27840.8,783.684,-3201.13,783.684,-30323.4,10,557,572,814,851,3260
12844.1,0.0131787,0.00216402,0.00584488,-0.00492879,0.00584488,0.00360876,0.0067831,-0.00492879,0.0067831,-0.0058208,-8512.98,3755.34,-3089.14,3755.34,-7766.45,4509.72,-3089.14,4509.72,-13849.6,10,561,815,837,841,3261
11369.8,0.011641,0.00272199,-0.00636706,0.00336177,-0.00636706,-0.00019418,0.0062214,0.00336177,0.0062214,-0.00392135,-49596.1,-4100.57,2102.47,-4100.57,-51628.2,4121.09,2102.47,4121.09,-54006.2,10,512,762,776,780,3262
24730.3,0.0252419,0.00668611,0.0138443,-0.00970592,0.0138443,-0.0135888,0.00828179,-0.00970592,0.00828179,0.00441782,-106678,8780.34,-6294.09,8780.34,-120457,5634.23,-6294.09,5634.23,-108686,10,558,559,574,853,3263
23046.8,0.0237096,0.00344104,0.014974,-0.00761488,0.014974,-0.00992266,0.00692748,-0.00761488,0.00692748,0.00860384,43044.8,9563.33,-4944.26,9563.33,33945.8,4656.36,-4944.26,4656.36,45999.2,10,559,574,575,854,3264
21172.7,0.0217598,0.00921584,0.0109184,-0.00826428,0.0109184,-0.0108929,0.00783904,-0.00826428,0.00783904,0.00306003,27472.6,6872.17,-5290.79,6872.17,14050.2,5224.33,-5290.79,5224.33,23133.3,10,558,574,852,853,3265
21288.5,0.0219089,0.00974798,0.00691088,0.00896452,0.00691088,-0.0137691,-0.00842183,0.00896452,-0.00842183,0.00623931,54121.7,4477.2,5889.4,4477.2,39091.5,-5599.57,5889.4,-5599.57,51657.5,10,599,866,887,888,3266
19503.5,0.0200399,0.00138018,0.00833111,0.00972623,0.00833111,-0.0109797,-0.00430577,0.00972623,-0.00430577,0.0107365,18042.7,5321.74,6271.65,5321.74,9727.48,-2835.88,6271.65,-2835.88,23956.8,10,597,863,864,886,3267
15313.9,0.015701,0.00319682,0.00860021,0.00228325,0.00860021,-0.00985614,-0.00569412,0.00228325,-0.00569412,0.00626654,-22528,5514.9,1385.4,5514.9,-31334,-3608.22,1385.4,-3608.22,-20582.9,10,596,597,601,863,3268
17000.2,0.0174501,0.00970967,0.00269734,0.00301144,0.00269734,-0.00909186,-0.011116,0.00301144,-0.011116,-0.000228108,3879.48,1782.75,1976.11,1782.75,-8309.42,-7215.87,1976.11,-7215.87,-2566.98,10,454,605,705,878,3269
28030.9,0.0286439,0.0206594,-0.00400304,0.00116041,-0.00400304,-0.00778309,-0.0158451,0.00116041,-0.0158451,-0.0143948,-75729.9,-2848.39,480.667,-2848.39,-93422.1,-10146.3,480.667,-10146.3,-99310.2,10,452,483,703,747,3270
23270.4,0.023857,0.00266628,0.0175356,0.00170895,0.0175356,-0.0116364,0.00210493,0.00170895,0.00210493,0.00902897,-24375.1,11399.6,1099.61,11399.6,-33715.9,1369.39,1099.61,1369.39,-20272.3,10,552,560,575,834,3271
22413.6,0.0230181,0.00668536,0.0136273,-0.0076327,0.0136273,-0.0128735,0.00472735,-0.0076327,0.00472735,0.00721552,11663.9,8646.67,-4928.66,8646.67,-1550.91,3216.66,-4928.66,3216.66,11628,10,559,574,853,854,3272
17434.3,0.0179709,-0.00475142,-0.00824675,0.011857,-0.00824675,0.00185718,0.0022494,0.011857,0.0022494,0.00582695,75451,-5280.41,7736.96,-5280.41,79671.4,1491.77,7736.96,1491.77,82109.8,10,514,778,782,783,3273
24834.1,0.0254099,0.00406307,-0.0183804,0.00773956,-0.0183804,-0.0109258,0.00127404,0.00773956,0.00127404,0.00585102,-61145.9,-11779.8,5123.78,-11779.8,-71680.6,1075.97,5123.78,1075.97,-60499.2,10,518,519,523,787,3274
13553.6,0.0139671,-0.00401,-0.00670345,0.00499755,-0.00670345,0.00244267,0.00760689,0.00499755,0.00760689,0.00415343,71003.1,-4318.87,3252.37,-4318.87,75146.3,4941.65,3252.37,4941.65,76216.8,10,513,517,518,781,3275
19765.2,0.020317,0.00294606,0.0111011,0.00589649,0.0111011,-0.0117133,-0.00522139,0.00589649,-0.00522139,0.0101692,26971.4,7038.04,3732.58,7038.04,16911.1,-3392.25,3732.58,-3392.25,31419.5,10,596,862,863,885,3276
14657.9,0.0150504,0.00299848,-0.00643365,-0.0075067,-0.00643365,0.00243167,-0.0072348,-0.0075067,-0.0072348,-0.0049767,5356.77,-4198.39,-4909.24,-4198.39,5083.59,-4665.25,-4909.24,-4665.25,288.289,10,472,733,738,739,3277
13162.3,0.0135206,0.00169067,0.00541192,-0.00548771,0.00541192,0.000800166,0.00862143,-0.00548771,0.00862143,-0.00184077,13147.7,3437.26,-3521.43,3437.26,12450.6,5647.78,-3521.43,5647.78,10667.7,10,557,573,837,851,3278
12582.4,0.0129095,-0.00380015,0.00610591,-0.00784815,0.00610591,0.0025044,0.00387847,-0.00784815,0.00387847,0.00119775,-13668.7,3930.48,-5140.52,3930.48,-9678.71,2563.48,-5140.52,2563.48,-10652.7,10,573,851,852,856,3279
13273.6,0.0136525,0.00912566,0.00738878,-0.00232408,0.00738878,-0.00795742,0.00260838,-0.00232408,0.00260838,0.00025502,42719.1,4654.75,-1473.18,4654.75,31421.3,1722.03,-1473.18,1722.03,36843.5,10,573,577,578,857,3280
9325.13,0.00959651,-0.00139343,-0.00379022,0.00572941,-0.00379022,0.00235722,0.00428396,0.00572941,0.00428396,0.000643179,46304.7,-2417.96,3732.66,-2417.96,48683.2,2791.48,3732.66,2791.48,47475,10,512,516,517,780,3281
11894.2,0.0121561,-0.00474847,-0.00833074,0.00284185,-0.00833074,-0.000770146,0.00425063,0.00284185,0.00425063,0.00306972,-89104.2,-5412.29,1902,-5412.29,-86519.6,2813.97,1902,2813.97,-84073.8,10,517,518,781,786,3282
17541.9,0.0179895,0.00402798,-0.00954175,-0.00154109,-0.00954175,-0.0114489,-0.00700763,-0.00154109,-0.00700763,0.00728587,-17522.4,-6125.05,-943.264,-6125.05,-27814.2,-4519.53,-943.264,-4519.53,-15472.4,10,469,487,728,752,3283
21777.8,0.0223133,0.000330147,0.0166806,-0.00481079,0.0166806,-0.0080852,0.00351467,-0.00481079,0.00351467,0.00734317,-37208.6,10734.5,-3216.3,10734.5,-43266.7,2510.9,-3216.3,2510.9,-33088.5,10,574,575,854,858,3284
23652.5,0.0242448,0.00691894,0.0148197,0.00654508,0.0148197,-0.0148158,-0.00369129,0.00654508,-0.00369129,0.00788411,-24453.6,9370.25,4202.94,9370.25,-39314.1,-2484.92,4202.94,-2484.92,-24209.6,10,575,579,833,858,3285
20151.8,0.020656,-0.00676736,0.00781167,-0.012859,0.00781167,0.00278043,0.00774345,-0.012859,0.00774345,0.00371903,-33862.4,4938.53,-8487.48,4938.53,-27668.7,5063.76,-8487.48,5063.76,-27430.9,10,558,559,839,853,3286
17366.4,0.0179098,-0.00676801,0.00760182,-0.0108538,0.00760182,0.00351898,0.00407945,-0.0108538,0.00407945,0.00647737,83697.7,4834.1,-7116.46,4834.1,90330,2661.78,-7116.46,2661.78,92044.8,10,559,839,853,854,3287
18514.2,0.0190355,0.00736102,-0.0127724,-0.00362842,-0.0127724,-0.0103242,-0.00237185,-0.00362842,-0.00237185,0.00442908,34340.4,-8175.01,-2308.83,-8175.01,22544.9,-1568.73,-2308.83,-1568.73,32258,10,523,719,787,789,3288
20315.6,0.0208068,0.00388604,-0.0144962,0.00553305,-0.0144962,-0.0106077,0.00155205,0.00553305,0.00155205,0.00596858,-42578,-9261.08,3627.26,-9261.08,-52649.9,1182.01,3627.26,1182.01,-41641,10,518,782,783,787,3289
19918.6,0.020465,-0.00475113,-0.00833585,0.0127146,-0.00833585,0.000733098,0.00764032,0.0127146,0.00764032,0.00514731,12772,-5284.43,8352.72,-5284.43,16343.1,5015.2,8352.72,5015.2,18875.9,10,514,777,778,782,3290
21554.5,0.0221378,0.00670746,-0.0120137,0.00797681,-0.0120137,-0.0102685,0.00860592,0.00797681,0.00860592,0.00458228,13369.9,-7589.88,5115.95,-7589.88,1899.41,5737.03,5115.95,5737.03,11614.2,10,513,518,781,782,3291
35595.4,0.0367842,0.025872,0.0048609,0.0109946,0.0048609,-0.0169624,-0.0198405,0.0109946,-0.0198405,-0.00288565,143618,3243.59,7544.34,3243.59,117606,-13070.3,7544.34,-13070.3,123922,10,451,617,804,889,3292
22451.6,0.0231181,0.00487076,-0.00665615,-0.0140784,-0.00665615,-0.0074968,-0.0102848,-0.0140784,-0.0102848,0.00523936,61014.5,-4402.52,-9268.18,-4402.52,53298.3,-6520.23,-9268.18,-6520.23,61160.6,10,485,749,754,755,3293
34702.3,0.0356433,-0.00442709,0.0242779,0.015856,0.0242779,-0.00442144,-0.00563078,0.015856,-0.00563078,0.0110969,5186.38,15595.8,10646.6,15595.8,8288.39,-3301.54,10646.6,-3301.54,16463.5,10,615,619,620,892,3294
18083.7,0.0185225,0.0103486,0.00581668,-0.00276503,0.00581668,-0.0125401,-0.00910301,-0.00276503,-0.00910301,0.00134976,-37047.4,3700.24,-1842.88,3700.24,-52150.3,-5823.97,-1842.88,-5823.97,-42887.9,10,604,607,608,876,3295
28663.9,0.0295991,0.0105606,-0.0100879,0.00933407,-0.0100879,0.000949986,0.0198439,0.00933407,0.0198439,-0.00665264,119563,-6431,6149.61,-6431,113801,12733.6,6149.61,12733.6,108152,10,530,531,534,794,3296
13008,0.013364,0.00554381,-0.00228838,-0.00284833,-0.00228838,-0.00728558,0.00870271,-0.00284833,0.00870271,0.00246656,18165.7,-1526.6,-1806.98,-1526.6,10145.4,5803.99,-1806.98,5803.99,15921.6,10,503,766,767,797,3297
17716.7,0.0181796,0.00766494,-0.000299776,0.00240076,-0.000299776,-0.000503525,0.01373,0.00240076,0.01373,-0.00693002,-3792.47,-124.071,1516.38,-124.071,-8856.97,8852.9,1516.38,8852.9,-13575.8,10,501,503,534,765,3298
26570.3,0.0272879,0.0102988,-0.0113203,0.00714018,-0.0113203,-0.0014438,0.0172523,0.00714018,0.0172523,-0.00747539,14231.5,-7330.23,4750.78,-7330.23,7002.48,11147.9,4750.78,11147.9,2551.39,10,530,534,765,794,3299
19322.4,0.0197415,0.00522642,0.00381687,-0.00904922,0.00381687,-0.015476,0.00561585,-0.00904922,0.00561585,0.0079695,-89017.9,2003.99,-5994.89,2003.99,-101971,4673.4,-5994.89,4673.4,-87612.5,10,535,768,798,799,3300
18540.1,0.0189721,0.00837822,-0.00214986,0.002105,-0.00214986,-0.00764339,0.013953,0.002105,0.013953,-0.00210935,-56470.3,-1319.8,1368.76,-1319.8,-66421.1,9183.01,1368.76,9183.01,-63820.9,10,503,504,569,848,3301
16147.4,0.0166468,0.00650353,-0.00511785,-0.002118,-0.00511785,-0.00067755,0.0123732,-0.002118,0.0123732,-0.00287586,85478.1,-3307.2,-1309.43,-3307.2,81298.9,7962.24,-1309.43,7962.24,78973.7,10,504,767,797,798,3302
19090.1,0.0196545,0.00143356,-0.00587837,0.00200035,-0.00587837,0.00366836,0.0155057,0.00200035,0.0155057,-0.00278513,56633.3,-3773.84,1288.75,-3773.84,58278.6,9992.36,1288.75,9992.36,53563.2,10,503,765,766,797,3303
14527.3,0.0149834,0.00592266,0.00374813,0.0025848,0.00374813,-0.000674104,0.0113717,0.0025848,0.0113717,-0.00210389,93899.3,2449.38,1612.01,2449.38,90089.4,7318.93,1612.01,7318.93,88298.2,10,504,767,848,849,3304
23734.1,0.0245517,0.0086297,0.00537262,-0.0118394,0.00537262,0.00156784,0.0154463,-0.0118394,0.0154463,-0.00469863,152458,3361.73,-7791.14,3361.73,148378,9790.6,-7791.14,9790.6,143544,10,565,566,569,845,3305
11956.2,0.0123028,0.00713319,-0.00212034,-0.000958124,-0.00212034,-0.000257729,0.00832531,-0.000958124,0.00832531,-0.00524636,49598.1,-1396.89,-568.88,-1396.89,45005.2,5312.48,-568.88,5312.48,41331.9,10,503,569,817,848,3306
13769.8,0.0141471,0.0096662,0.00029306,0.00460257,0.00029306,-0.0101779,0.00544017,0.00460257,0.00544017,0.00128689,21371.9,420.794,3012.9,420.794,9023.35,3968.82,3012.9,3968.82,15669.1,10,504,570,768,849,3307
25584.6,0.026462,0.0106087,-0.0114648,-0.00276678,-0.0114648,0.0123461,0.0103464,-0.00276678,0.0103464,-0.0174161,150567,-7505.16,-893.628,-7505.16,153297,4763.23,-893.628,4763.23,131695,10,505,535,768,799,3308
13027,0.0133781,0.00530208,0.0020178,0.00328985,0.0020178,-0.00728558,0.00870271,0.00328985,0.00870271,0.00246656,10229.2,1365.16,2095.15,1365.16,2359.44,5805.2,2095.15,5805.2,8136.1,10,503,766,767,848,3309
19449.9,0.0198554,0.00720607,-0.00442818,0.00685372,-0.00442818,-0.0171266,0.0056677,0.00685372,0.0056677,0.00715847,-103546,-2472.2,4606.03,-2472.2,-118923,4717.32,4606.03,4717.32,-104008,10,570,768,849,850,3310
19495.1,0.0200342,0.0115694,0.000695244,-2.49683e-05,0.000695244,-0.00829205,0.0140496,-2.49683e-05,0.0140496,-0.00204794,27299.9,397.88,-0.971395,397.88,14873.7,9204.59,-0.971395,9204.59,17987.7,10,504,534,797,798,3311
21040.6,0.0215606,0.00825758,0.00406977,0.00950732,0.00406977,-0.0180702,-0.000206897,0.00950732,-0.000206897,0.00941451,-30152.3,3054.28,6039.36,3054.28,-47076.2,788.803,6039.36,788.803,-29200.5,10,504,767,768,849,3312
16211.4,0.016575,0.00531559,0.00166315,0.00336578,0.00166315,-0.00472848,0.0128036,0.00336578,0.0128036,-0.00260531,-74942,1138.44,2160.34,1138.44,-80969.7,8382.31,2160.34,8382.31,-80579.2,10,503,504,767,848,3313
23095.7,0.0235824,0.012224,-0.00314032,0.00553438,-0.00314032,-0.0142831,0.0141698,0.00553438,0.0141698,-0.000322346,-96146.6,-2227.85,3794.07,-2227.85,-112911,9389.78,3794.07,9389.78,-104731,10,531,534,794,798,3314
21945.3,0.0225211,0.00406032,-0.0167253,-0.00405163,-0.0167253,-0.00969024,-0.00315003,-0.00405163,-0.00315003,0.00619422,-3824.49,-10740.4,-2581.56,-10740.4,-13364,-2100.9,-2581.56,-2100.9,-2759.71,10,519,523,720,787,3315
14144.1,0.0145622,0.00576773,-0.0113692,0.00264911,-0.0113692,-0.00335289,0.0010698,0.00264911,0.0010698,-0.00036638,59340,-7333.75,1738.55,-7333.75,53325.5,698.844,1738.55,698.844,55312,10,522,524,525,789,3316
22017.1,0.0226152,0.0065868,-0.0131379,0.00802643,-0.0131379,-0.0125711,0.00457051,0.00802643,0.00457051,0.00709409,15161.1,-8340.9,5172.9,-8340.9,2222.03,3090.86,5172.9,3090.86,15136.8,10,514,518,782,783,3317
15426.8,0.0158467,0.00607998,0.00843031,0.00437913,0.00843031,0.00384393,-0.00549502,0.00437913,-0.00549502,-0.00917804,15640.2,5438.69,2823.37,5438.69,14419.6,-3535.85,2823.37,-3535.85,5718.11,10,600,866,867,872,3318
26452.6,0.0268904,0.0210056,0.00157049,0.00592018,0.00157049,-0.0220409,0.00616774,0.00592018,0.00616774,-0.00376458,-175997,1004.1,3892.62,1004.1,-204534,3545.43,3892.62,3545.43,-191927,10,450,451,702,804,3319
25932.8,0.0266534,0.0153968,-0.0118296,-0.00129339,-0.0118296,-0.0142046,-0.0131198,-0.00129339,-0.0131198,0.000583242,31963.6,-7923.3,-1370.87,-7923.3,14086.8,-8893.05,-1370.87,-8893.05,21762.9,10,483,701,702,747,3320
16280.3,0.0167505,-0.000494216,-0.00162151,-0.00522286,-0.00162151,0.00456302,-0.0129555,-0.00522286,-0.0129555,-0.0023087,42579.3,-932.597,-3547.48,-932.597,46215.3,-8251.39,-3547.48,-8251.39,41154.7,10,465,724,725,732,3321
20458,0.0211025,-0.000494214,-0.0067999,-0.0113942,-0.0067999,0.00486373,-0.0121541,-0.0113942,-0.0121541,-0.000825565,91665.7,-4171.63,-7533.68,-4171.63,95526.2,-7717.29,-7533.68,-7717.29,91104.9,10,465,724,725,748,3322
16652.2,0.0170556,0.0110273,0.00410208,0.000793992,0.00410208,-0.00159796,-0.00921987,0.000793992,-0.00921987,-0.0103708,-37338.5,2657.61,472.357,2657.61,-45488.7,-5990.42,472.357,-5990.42,-51311.2,10,605,872,873,877,3323
15635.5,0.0160858,0.00633999,-0.00702951,-0.00234612,-0.00702951,0.00219408,-0.00967627,-0.00234612,-0.00967627,-0.00685313,45455.4,-4531.61,-1516.31,-4531.61,42897.3,-6281.18,-1516.31,-6281.18,36917,10,471,731,732,738,3324
13775.8,0.0141435,0.00434161,-0.00506641,0.00131778,-0.00506641,-0.00742234,-0.00893076,0.00131778,-0.00893076,0.00343973,4630.57,-3249.23,920.246,-3249.23,-3205.73,-5707.28,920.246,-5707.28,4145.5,10,473,478,739,740,3325
32950.7,0.0337433,0.0134626,0.0152303,0.0109613,0.0152303,-0.0138288,-0.0177602,0.0109613,-0.0177602,0.000627835,-39711.7,9911.24,7834.52,9911.24,-55676.2,-11759.7,7834.52,-11759.7,-48638.7,10,616,887,888,893,3326
15153.9,0.0154947,0.00297985,-0.00677401,-0.00745558,-0.00677401,-0.00157882,-0.00822756,-0.00745558,-0.00822756,-0.00343564,-75379.3,-4463.38,-4882.18,-4463.38,-78285.2,-5333.52,-4882.18,-5333.52,-79419.8,10,472,732,733,738,3327
23178.8,0.0239967,0.0028909,-0.00763452,-0.0183682,-0.00763452,0.00368072,-0.00556151,-0.0183682,-0.00556151,-0.000631695,164262,-4718.26,-11983.4,-4718.26,165324,-3189.72,-11983.4,-3189.72,161913,10,484,748,749,754,3328
34668.8,0.0355225,0.0195497,0.0032594,0.0115163,0.0032594,-0.028687,-0.0123135,0.0115163,-0.0123135,0.00990409,-24859.4,3305.15,7920.72,3305.15,-55352.9,-8331.8,7920.72,-8331.8,-31428.7,10,620,621,803,893,3329
30538.9,0.0313312,0.0268923,-0.00877241,-0.0031388,-0.00877241,-0.0220409,0.00616774,-0.0031388,0.00616774,-0.00376458,4936.71,-5745.44,-2456.4,-5745.44,-27005.8,3566.34,-2456.4,3566.34,-14512.3,10,450,451,488,702,3330
36187.6,0.0369811,0.0207058,0.00269223,0.0100613,0.00269223,-0.0326662,-0.0102643,0.0100613,-0.0102643,0.0113163,-74923.7,3080.52,6905.66,3080.52,-109026,-7081.44,6905.66,-7081.44,-81234.3,10,620,621,623,803,3331
31491.2,0.0322727,0.0221848,-0.00458193,0.0032771,-0.00458193,-0.0231432,0.0153113,0.0032771,0.0153113,0.00150946,-19184.6,-2756.63,1879.51,-2756.63,-49782.7,9099.93,1879.51,9099.93,-31710.8,10,450,702,804,808,3332
29450.4,0.0303667,0.0147778,0.0146308,0.00705284,0.0146308,-0.00918983,-0.0166708,0.00705284,-0.0166708,-0.00154373,93607.9,9568.66,5288.05,9568.66,80139.7,-10848.2,5288.05,-10848.2,82439.7,10,617,888,889,893,3333
22930.9,0.0236582,0.00647673,-0.017072,-0.007311,-0.017072,0.00157983,-0.0067959,-0.007311,-0.0067959,-0.00422381,99722.4,-10900.8,-5242.76,-10900.8,97674.2,-4102.49,-5242.76,-4102.49,92932.3,10,483,747,748,753,3334
24552.2,0.0250965,0.011879,-0.00612501,-0.0060053,-0.00612501,-0.0172539,-0.0131454,-0.0060053,-0.0131454,0.00374991,-75786.2,-4150.72,-4258.99,-4150.72,-93690,-9083.39,-4258.99,-9083.39,-81775.7,10,483,488,701,702,3335
29830.6,0.031366,0.0249925,-0.0111118,0.00298263,-0.0111118,-0.010376,0.0167555,0.00298263,0.0167555,0.00130196,477616,-6949.84,1472.81,-6949.84,453938,10211.9,1472.81,10211.9,463517,10,450,702,807,808,3336
17398.1,0.017805,0.0144947,-0.00231235,-0.00304161,-0.00231235,-0.0140664,-0.0042248,-0.00304161,-0.0042248,-0.0018234,-50902.4,-1759.37,-2105.04,-1759.37,-69186.7,-2986.19,-2105.04,-2986.19,-61664.6,10,488,701,702,807,3337
13327.4,0.0136937,0.00782132,0.00389402,9.1024e-05,0.00389402,-0.00933694,-0.00697896,9.1024e-05,-0.00697896,0.00232071,21784.3,2518.06,30.2021,2518.06,10556.7,-4454.14,30.2021,-4454.14,18299.8,10,608,609,877,880,3338
17393.3,0.0178181,0.00435586,-0.000417959,-0.000686556,-0.000417959,-0.00976571,-0.0130268,-0.000686556,-0.0130268,0.00462638,-37921,-268.372,-448.339,-268.372,-47195.7,-8430.48,-448.339,-8430.48,-37662.3,10,455,706,707,881,3339
12146.1,0.0124453,0.00724093,0.00189457,0.00327056,0.00189457,-0.00288036,-0.00760017,0.00327056,-0.00760017,-0.00527048,-32132.9,1234.69,2149.81,1234.69,-38636.4,-4928.1,2149.81,-4928.1,-40335.3,10,605,873,877,878,3340
19435.9,0.0198973,0.00614626,-0.00169117,-0.0019666,-0.00169117,-0.0100228,-0.0147418,-0.0019666,-0.0147418,0.00281101,-49735,-1100.71,-1286.05,-1100.71,-60328.3,-9572.03,-1286.05,-9572.03,-51849.7,10,454,455,706,737,3341
16200.6,0.0165593,0.00541739,0.00161757,-0.00193757,0.00161757,-0.0131664,-0.0091245,-0.00193757,-0.0091245,0.00556349,-80240.2,1016.16,-1286.72,1016.16,-92510.1,-5799.41,-1286.72,-5799.41,-80004.8,10,609,611,612,880,3342
21385.9,0.0219494,0.00774221,-0.00288629,-0.00123077,-0.00288629,-0.0113097,-0.0157787,-0.00123077,-0.0157787,0.00416024,401.03,-1810.53,-770.837,-1810.53,-12044.6,-10232.7,-770.837,-10232.7,-1892.05,10,471,476,737,738,3343
17569.7,0.0179835,0.00442572,-0.00317994,0.00173136,-0.00317994,-0.0111728,-0.0119417,0.00173136,-0.0119417,0.00546049,-54322.3,-2046.82,1170.58,-2046.82,-64634.2,-7684.38,1170.58,-7684.38,-53552.5,10,476,480,481,743,3344
17351.8,0.0178337,0.00507524,-0.00173144,-0.000825795,-0.00173144,-0.00854581,-0.0132248,-0.000825795,-0.0132248,0.00464625,25514.1,-1120.42,-531.152,-1120.42,16591.4,-8534.94,-531.152,-8534.94,25321.8,10,455,707,737,742,3345
18858.4,0.0193474,0.00546994,-0.00358204,-0.000639685,-0.00358204,-0.0100126,-0.0138293,-0.000639685,-0.0138293,0.00472692,-8870.8,-2304.63,-385.456,-2304.63,-19053.2,-8932.71,-385.456,-8932.71,-9259.23,10,455,480,707,742,3346
18443.1,0.0189494,0.00435226,-0.000351516,-0.000846293,-0.000351516,-0.00812693,-0.014647,-0.000846293,-0.014647,0.00482114,18905.6,-225.097,-550.023,-225.097,10684.6,-9448.54,-550.023,-9448.54,19331,10,455,456,707,881,3347
16719,0.0172115,0.0089999,-0.000636159,-0.000620856,-0.000636159,-0.00500915,-0.0129364,-0.000620856,-0.0129364,-0.00186639,59552.5,-474.92,-464.801,-474.92,50611.9,-8387.98,-464.801,-8387.98,52403.9,10,453,705,724,731,3348
25759.8,0.0263816,0.0119009,-0.0110944,0.00936792,-0.0110944,0.00202692,0.0116625,0.00936792,0.0116625,-0.014303,-39010.2,-7195.61,6714.83,-7195.61,-44042.8,6937.35,6714.83,6937.35,-56003.9,10,531,535,795,798,3349
11100.1,0.0113516,0.00265255,-0.00690551,0.0047386,-0.00690551,-0.00523461,0.00314785,0.0047386,0.00314785,0.000478565,-72127.2,-4450.61,3065.88,-4450.61,-77425.3,2114.11,3065.88,2114.11,-73714,10,516,517,521,785,3350
15943.7,0.0163643,-0.00717775,-0.00505755,0.0114907,-0.00505755,0.00508761,0.00131302,0.0114907,0.00131302,0.00237291,-8614.85,-3253.04,7507.91,-3253.04,-711.935,855.238,7507.91,855.238,-2586.61,10,513,776,777,781,3351
17767.2,0.0182609,0.00518463,-0.00786092,0.00566547,-0.00786092,0.00160493,0.0112304,0.00566547,0.0112304,-0.00558478,25924.4,-4977.51,3472.85,-4977.51,23259.8,7424.75,3472.85,7424.75,18722,10,513,526,776,790,3352
13506.8,0.0138222,0.00908521,-0.00367247,0.00498755,-0.00367247,-0.00638159,0.00586819,0.00498755,0.00586819,-0.00431035,-54992.2,-2372.1,3130.15,-2372.1,-65113.9,3848.33,3130.15,3848.33,-63912.4,10,527,530,790,794,3353
28043.3,0.0286923,0.012005,-0.0117666,0.00755925,-0.0117666,-0.0218823,0.00830131,0.00755925,0.00830131,0.00911572,-57858.4,-7969.64,5582.51,-7969.64,-78277.5,6389.32,5582.51,6389.32,-59869.6,10,535,795,798,799,3354
21532,0.0221053,0.00405633,-0.0160237,-0.00396228,-0.0160237,-0.0107281,-0.00084985,-0.00396228,-0.00084985,0.00743326,3232.69,-10368.6,-2535.96,-10368.6,-6577.3,-542.293,-2535.96,-542.293,5309.94,10,443,519,720,721,3355
28973.4,0.0296351,0.0028181,-0.0178881,0.00691619,-0.0178881,-0.0168454,0.00763551,0.00691619,0.00763551,0.0131776,-68804.8,-11488.3,4645.74,-11488.3,-81900.7,5294.74,4645.74,5294.74,-62467.4,10,514,515,519,783,3356
20415.9,0.0208756,0.00546026,-0.0089102,0.00631048,-0.0089102,-6.61563e-06,0.0129418,0.00631048,0.0129418,-0.00717259,-73013.2,-5673,3900.57,-5673,-76920.9,8580.03,3900.57,8580.03,-81471.8,10,513,526,527,790,3357
16293,0.0167061,-0.0079004,-0.0017245,0.0125966,-0.0017245,0.0041663,-0.0013799,0.0125966,-0.0013799,0.00343347,-28419,-1017.4,8213.61,-1017.4,-20607.8,-951.122,8213.61,-951.122,-21123.5,10,527,777,790,791,3358
20172.3,0.0208052,-0.00397999,-0.00728178,0.013389,-0.00728178,0.00206674,0.00836117,0.013389,0.00836117,0.00536006,87058.6,-4583.13,8740.62,-4583.13,90980.2,5448.53,8740.62,5448.53,92776.7,10,514,527,777,778,3359
24149.4,0.0246774,0.00658674,-0.0131192,0.00785575,-0.0131192,-0.0136386,0.00975526,0.00785575,0.00975526,0.00521588,-84581.5,-8316.5,5078.86,-8316.5,-98212,6549.16,5078.86,6549.16,-85892.4,10,513,514,518,782,3360
28433.5,0.029527,0.0137512,-0.003735,0.0185174,-0.003735,-0.0046512,0.0142319,0.0185174,0.0142319,-0.000880076,230049,-2463.34,12275.1,-2463.34,219112,8782.51,12275.1,8782.51,220444,10,531,532,535,795,3361
13712.9,0.0140706,0.0092352,-0.00433882,0.0036805,-0.00433882,-0.00523145,0.007197,0.0036805,0.007197,-0.00399756,-3416.06,-2781.5,2291.16,-2781.5,-12812.4,4709.63,2291.16,4709.63,-12154.5,10,530,764,790,794,3362
23238.1,0.0237996,-0.0106514,-0.00314496,0.0136956,-0.00314496,0.00121051,0.0114279,0.0136956,0.0114279,0.00887166,-52702,-1649.95,9195.21,-1649.95,-44686.4,7383.16,9195.21,7383.16,-40541.4,10,527,528,778,792,3363
21462.5,0.0219195,0.00598474,-0.000665493,0.0113789,-0.000665493,-0.0160878,0.00736307,0.0113789,0.00736307,0.00772488,-95844.5,-691.671,7594.71,-691.671,-110124,4871.28,7594.71,4871.28,-95106.4,10,531,791,792,795,3364
16992,0.0175104,0.0114289,-0.00624464,0.00532698,-0.00624464,-0.0041114,0.00892489,0.00532698,0.00892489,-0.00456769,80687.9,-4087.6,3561.48,-4087.6,71027.7,5730.72,3561.48,5730.72,70197.6,10,534,765,794,797,3365
20378.8,0.0209112,-0.00557995,-0.00220004,0.00689036,-0.00220004,-0.00466388,0.0138847,0.00689036,0.0138847,0.0106243,-12551.4,-1258.38,4887.16,-1258.38,-11368.8,9062.17,4887.16,9062.17,-2395.91,10,529,779,792,793,3366
20162.3,0.0207258,0.00693201,-0.00585877,0.00293964,-0.00585877,-0.015017,0.00986729,0.00293964,0.00986729,0.00952941,29440.6,-4378.79,2352.09,-4378.79,16319.1,6710.08,2352.09,6710.08,31137.9,10,529,792,793,796,3367
13334.5,0.0137096,0.00322796,-0.0050959,0.00607091,-0.0050959,0.00191133,0.0079699,0.00607091,0.0079699,-0.0039546,31109.4,-3231.88,3834.28,-3231.88,30058.3,5244.08,3834.28,5244.08,26220.4,10,512,513,526,776,3368
20104.8,0.0204692,0.00773121,-0.00782985,0.00476638,-0.00782985,-0.0134715,0.0105684,0.00476638,0.0105684,0.00142084,-154955,-5360.9,3401.59,-5360.9,-168026,7066.45,3401.59,7066.45,-159183,10,527,531,791,794,3369
29716.4,0.0305639,0.0165776,-0.0127141,0.0115621,-0.0127141,0.000829293,0.0125751,0.0115621,0.0125751,-0.0148642,46212.6,-8210.55,8119.18,-8210.55,37440.5,7507.57,8119.18,7507.57,25818.5,10,531,534,535,798,3370
24596.1,0.0252259,0.00984785,-0.00845782,0.013502,-0.00845782,-0.00787177,0.0119465,0.013502,0.0119465,-0.00158592,-12638.3,-5614.3,9200.99,-5614.3,-22940.4,7551.25,9200.99,7551.25,-20191.1,10,531,532,792,795,3371
21661.5,0.0222221,0.01042,-0.00950439,0.0040681,-0.00950439,-0.00314767,0.0134238,0.0040681,0.0134238,-0.0069373,-6600.85,-6033.89,2424.54,-6033.89,-15592.2,8836.16,2424.54,8836.16,-17988.2,10,526,530,764,790,3372
28644.1,0.0293443,0.0145116,0.0091321,-0.0096555,0.0091321,-0.0227557,0.0084003,-0.0096555,0.0084003,0.00829715,-31603.8,6191.09,-6835.85,6191.09,-54412.4,6433.54,-6835.85,6433.54,-35869.1,10,570,846,849,850,3373
39761.3,0.0405929,0.0158839,0.00405561,-0.0159449,0.00405561,-0.0350567,0.00750817,-0.0159449,0.00750817,0.0183444,-97285,3192.71,-10731.3,3192.71,-129561,6250.81,-10731.3,6250.81,-95919.9,10,567,570,846,850,3374
31074.7,0.0315244,0.0143269,0.010491,-0.008828,0.010491,-0.0201125,0.0160511,-0.008828,0.0160511,0.000202132,-220296,7369.46,-6223,7369.46,-241685,10674,-6223,10674,-229725,10,563,566,567,843,3375
25945.6,0.0267415,0.00353455,0.0142617,-0.0121012,0.0142617,-0.00960659,0.00951689,-0.0121012,0.00951689,0.00954414,78772.5,9117.39,-7980.52,9117.39,70383,6336.92,-7980.52,6336.92,82289.6,10,560,563,839,840,3376
20202.4,0.0207136,0.00398229,0.0147207,-0.00502467,0.0147207,-0.0101142,0.00160837,-0.00502467,0.00160837,0.0060298,-21375.7,9392.71,-3307.96,9392.71,-31194.8,1238.86,-3307.96,1238.86,-20477.9,10,574,853,854,858,3377
19580.5,0.0200659,-0.00242405,0.00616967,-0.0098274,0.00616967,-0.00551517,0.0110061,-0.0098274,0.0110061,0.00749543,-35541.4,3887.42,-6597.28,3887.42,-37169.4,7228.69,-6597.28,7228.69,-29374.1,10,563,839,842,843,3378
28030.4,0.0286712,0.00286487,0.0113508,-0.010169,0.0113508,-0.0155163,0.013829,-0.010169,0.013829,0.0117218,-68803,7423.13,-7046.28,7423.13,-79841.1,9302.6,-7046.28,9302.6,-63347.1,10,563,564,840,843,3379
17867.4,0.0184194,-0.00449249,0.0044159,-0.0118247,0.0044159,0.00283828,0.00846087,-0.0118247,0.00846087,0.00468038,77895.6,2740.2,-7739.58,2740.2,82576.2,5481.81,-7739.58,5481.81,83465.6,10,562,838,839,842,3380
20394.9,0.0209986,0.00968609,0.00414922,-0.00111667,0.00414922,-0.0167121,0.00905445,-0.00111667,0.00905445,0.00945344,62313.9,3424.61,-1090.41,3424.61,46077,6220.65,-1090.41,6220.65,62156.9,10,564,843,844,847,3381
17198.6,0.017626,0.0108222,0.0059516,-0.00422726,0.0059516,-0.0107635,0.00794326,-0.00422726,0.00794326,-0.000606813,-25949.4,4098.06,-2938.48,4098.06,-39359.7,5286.91,-2938.48,5286.91,-33535.6,10,566,842,845,846,3382
22661.7,0.0233277,0.0119647,0.011344,-0.0056747,0.011344,-0.00389871,0.0123833,-0.0056747,0.0123833,-0.00560885,59838.2,7400.02,-3875.81,7400.02,50388.1,7978.3,-3875.81,7978.3,48311.1,10,565,566,842,845,3383
21085.7,0.0215448,0.0098573,0.00167175,-0.00835009,0.00167175,-0.0182555,0.00643638,-0.00835009,0.00643638,0.00628001,-84365,1443.57,-5564.15,1443.57,-102519,4362.1,-5564.15,4362.1,-87023.3,10,566,842,843,846,3384
15869.1,0.0163105,0.00216462,0.00587956,-0.00594801,0.00587956,0.00333901,0.0105949,-0.00594801,0.0105949,-0.00438509,24470.7,3717.57,-3760.13,3717.57,25034.7,6954.44,-3760.13,6954.44,19996.6,10,558,561,837,841,3385
16200.9,0.0165797,-0.003231,0.00563826,-0.0114369,0.00563826,-5.44049e-05,0.00608603,-0.0114369,0.00608603,0.00182617,-62390.9,3587.96,-7505.02,3587.96,-60388.4,3996.79,-7505.02,3996.79,-59403.9,10,558,562,838,841,3386
10462.2,0.0107543,-0.000982856,0.00344952,-0.00705518,0.00344952,0.00168036,0.00482595,-0.00705518,0.00482595,0.000254849,24417.1,2187.68,-4595.47,2187.68,26074.9,3142.53,-4595.47,3142.53,25008.7,10,557,572,573,851,3387
10685.7,0.0109357,0.00571362,0.00103564,-0.00678152,0.00103564,-0.00667365,0.00206136,-0.00678152,0.00206136,-0.000729264,-56289.7,703.913,-4375.75,703.913,-64433.7,1337.59,-4375.75,1337.59,-60742.9,10,565,841,842,845,3388
9088.33,0.00930844,0.00605008,0.00238675,-0.00387457,0.00238675,-0.0063753,0.00234139,-0.00387457,0.00234139,-0.000930979,-40640.1,1587.7,-2497.06,1587.7,-48702.3,1548.26,-2497.06,1548.26,-45294.7,10,565,816,841,845,3389
17231.5,0.0176974,-0.00323068,0.00568378,-0.0120907,0.00568378,-0.000130048,0.00654796,-0.0120907,0.00654796,0.00409807,6440.73,3591.75,-7920.89,3591.75,8377.6,4296.21,-7920.89,4296.21,10846.4,10,558,562,838,839,3390
23414.9,0.0239404,-0.000445549,0.00898714,-0.00932528,0.00898714,-0.00629362,0.0151389,-0.00932528,0.0151389,0.00518461,-78541.3,5738.59,-6290.06,5738.59,-81952.8,9942.81,-6290.06,9942.81,-75201.2,10,562,563,839,842,3391
9878.24,0.0102372,0.00610599,0.00308109,-0.00632892,0.00308109,-1.42879e-05,0.0040085,-0.00632892,0.0040085,-0.000249647,186384,1952.3,-4049.82,1952.3,182442,2567.57,-4049.82,2567.57,182066,10,562,565,841,842,3392
19906.3,0.0204338,0.00745574,0.0086634,-0.00675528,0.0086634,-0.00281762,0.0123499,-0.00675528,0.0123499,-0.00405874,3044.74,5518.57,-4285.26,5518.57,-3708.45,8098.68,-4285.26,8098.68,-4672.18,10,561,562,565,841,3393
17438.4,0.017906,0.00697763,-0.00396887,0.000603289,-0.00396887,-0.0100714,-0.0119358,0.000603289,-0.0119358,0.0037132,8738.94,-2547.64,439.376,-2547.64,-2527.86,-7646.22,439.376,-7646.22,6772.57,10,477,738,739,743,3394
12690.8,0.0129892,0.00410992,-0.00424637,-0.00016918,-0.00424637,-0.00737085,-0.00847335,-0.00016918,-0.00847335,0.00171431,-55311.6,-2736,-57.9513,-2736,-62954.3,-5452.93,-57.9513,-5452.93,-56771,10,473,478,479,740,3395
19488.8,0.0200265,-0.0020539,-0.00285244,-0.0146307,-0.00285244,-0.00361761,-0.0068315,-0.0146307,-0.0068315,0.00685766,17517.4,-1816.28,-9610.74,-1816.28,16431,-4316.82,-9610.74,-4316.82,22976.4,10,485,749,750,755,3396
23391.1,0.0239899,-0.00318152,0.00465711,0.0184746,0.00465711,-0.00472306,-0.00435062,0.0184746,-0.00435062,0.00818637,-20589.1,2987.66,12168.7,2987.66,-21730,-2668.32,12168.7,-2668.32,-13824.7,10,615,864,886,887,3397
19649.4,0.0201144,0.00254306,-0.0124014,-0.00425063,-0.0124014,-0.0112225,-0.00606596,-0.00425063,-0.00606596,0.00758653,-53191.6,-7946.09,-2687.33,-7946.09,-62656.5,-3957.1,-2687.33,-3957.1,-50123.5,10,468,486,487,751,3398
19921.5,0.0205282,0.00680158,-0.00516444,-0.0117501,-0.00516444,-0.00890358,-0.00880258,-0.0117501,-0.00880258,0.00499146,76766.7,-3394.19,-7659.21,-3394.19,66672.6,-5655.8,-7659.21,-5655.8,75452.2,10,467,726,749,750,3399
16340.6,0.0167627,0.0114356,0.00304291,0.00329178,0.00304291,-0.0117257,-0.00751504,0.00329178,-0.00751504,0.000272314,-6781.9,1675.25,1985.66,1675.25,-22080,-4868.89,1985.66,-4868.89,-14076.9,10,602,864,869,870,3400
14670.4,0.0150598,0.00138018,0.00701227,0.0081545,0.00701227,-0.00670008,-0.00389733,0.0081545,-0.00389733,0.00563177,-31.9776,4536.84,5234.6,4536.84,-5514.47,-2525.87,5234.6,-2525.87,2666.1,10,597,863,864,869,3401
17190.4,0.0176213,0.0107927,0.00288368,0.0018854,0.00288368,-0.0126398,-0.00904959,0.0018854,-0.00904959,0.00143048,-21602.3,1829.46,1188.26,1829.46,-36963.9,-5815.26,1188.26,-5815.26,-27611,10,604,608,876,877,3402
15398,0.0157953,0.00732907,0.00383062,0.00968271,0.00383062,-0.000951398,-0.00552159,0.00968271,-0.00552159,-0.0064641,-10153.8,2500.4,6268.53,2500.4,-15552.7,-3577.05,6268.53,-3577.05,-19194.6,10,599,865,866,871,3403
22248,0.0227672,0.00636929,-0.00547433,0.00142906,-0.00547433,-0.014824,-0.0141367,0.00142906,-0.0141367,0.00734155,-57121.9,-3510.07,975.585,-3510.07,-71079.2,-9118.82,975.585,-9118.82,-56381.1,10,471,476,477,738,3404
15898.2,0.0163554,0.00675442,-0.00533428,0.00149114,-0.00533428,-0.00920381,-0.00983638,0.00149114,-0.00983638,0.00412093,45054.9,-3412.07,1025.55,-3412.07,34523.5,-6275.21,1025.55,-6275.21,43443.2,10,477,478,739,744,3405
15192,0.0155701,0.00590113,-0.00215545,-0.00513554,-0.00215545,-0.00366143,-0.0110742,-0.00513554,-0.0110742,-0.00286798,-28236.6,-1372.72,-3348.59,-1372.72,-34375.1,-7201.91,-3348.59,-7201.91,-34070.1,10,471,731,737,738,3406
10969.7,0.0112912,0.00410636,-0.00258663,0.00129384,-0.00258663,-0.00605295,-0.00735408,0.00129384,-0.00735408,0.00372834,53721.8,-1623.67,889.384,-1623.67,46986.7,-4682.05,889.384,-4682.05,53558.4,10,482,713,740,744,3407
15606.1,0.0160579,0.00583789,-0.0038398,0.00260815,-0.0038398,-0.00814137,-0.0106727,0.00260815,-0.0106727,0.00406852,47944.9,-2439.73,1739.69,-2439.73,38708.7,-6824.55,1739.69,-6824.55,46920.1,10,481,743,744,746,3408
12699.6,0.0130498,0.00521693,-0.00153965,-0.00314582,-0.00153965,-0.00821574,-0.00780288,-0.00314582,-0.00780288,0.00382824,21747,-939.091,-1990.2,-939.091,12888.9,-4999.27,-1990.2,-4999.27,20913.3,10,474,734,735,741,3409
24245.1,0.0249676,0.010682,-9.77716e-05,0.00711037,-9.77716e-05,-0.0201965,-0.00901342,0.00711037,-0.00901342,0.0123329,67054.6,-174.745,4592.85,-174.745,47022.3,-5890.75,4592.85,-5890.75,67964.6,10,598,864,865,887,3410
16543.7,0.0169821,0.0109528,0.00541993,0.0024052,0.00541993,-0.00508337,-0.0096546,0.0024052,-0.0096546,-0.00548532,5376.48,3477.28,1525.81,3477.28,-4941.18,-6288.8,1525.81,-6288.8,-5434.57,10,605,867,872,873,3411
14274.3,0.0146829,0.0107891,0.00274599,0.0019696,0.00274599,-0.00897566,-0.00721974,0.0019696,-0.00721974,-0.00030031,45109.8,1744.86,1236.94,1744.86,32168.4,-4619.92,1236.94,-4619.92,38012.5,10,608,876,877,879,3412
10756.1,0.0110376,0.00296205,-0.00303897,-0.000291986,-0.00303897,-0.00645885,-0.00713374,-0.000291986,-0.00713374,0.00343982,-5838.19,-1946.9,-146.082,-1946.9,-12097.4,-4563.09,-146.082,-4563.09,-5445.15,10,479,734,740,741,3413
39736.4,0.0407318,0.026237,0.00258413,0.0140509,0.00258413,-0.0284359,-0.0168787,0.0140509,-0.0168787,0.00380973,-12529.4,1979.66,9457.93,1979.66,-46950.8,-11648.7,9457.93,-11648.7,-27959.5,10,451,617,621,804,3414
18391.2,0.018947,0.0122673,-0.00566773,-0.00415846,-0.00566773,0.00173325,-0.00894406,-0.00415846,-0.00894406,-0.0113372,75982.5,-3562.17,-2748.97,-3562.17,69529,-5510.95,-2748.97,-5510.95,60299.8,10,452,483,724,747,3415
34553.4,0.0354385,0.0129165,0.0201072,0.00517435,0.0201072,-0.0125661,-0.0186621,0.00517435,-0.0186621,0.000998471,-10850,13230.1,4226.71,13230.1,-25192.6,-12378.3,4226.71,-12378.3,-19154.6,10,616,617,888,893,3416
15169.3,0.0155359,0.00819976,0.00641172,-0.00302915,0.00641172,-0.00889867,-0.00759263,-0.00302915,-0.00759263,-0.000355358,-40257.1,4119.51,-2015.23,4119.51,-51594,-4851.26,-2015.23,-4851.26,-45796.9,10,607,875,876,879,3417
9081.39,0.00934458,0.00390717,0.00299081,-0.00224613,0.00299081,-0.00460263,-0.00558502,-0.00224613,-0.00558502,0.00222381,47429.9,1881.94,-1504.63,1881.94,41766,-3547.71,-1504.63,-3547.71,46396.8,10,610,821,875,879,3418
13897.1,0.0142887,0.00781037,0.000856975,0.000694419,0.000856975,-0.0104392,-0.00772697,0.000694419,-0.00772697,0.00386478,34792.6,509.971,420.956,509.971,22806,-4874.47,420.956,-4874.47,32374.1,10,611,879,880,882,3419
15799.5,0.01623,0.00981509,-0.000659669,0.000577677,-0.000659669,-0.00714426,-0.0110191,0.000577677,-0.0110191,-0.001888,18615.7,-508.922,315.144,-508.922,7750.07,-7182.44,315.144,-7182.44,10893.8,10,453,704,705,724,3420
17674.1,0.0181222,0.0068256,-0.00483548,-0.000608695,-0.00483548,-0.00984196,-0.0121218,-0.000608695,-0.0121218,0.00279396,-18817,-3105.48,-330.537,-3105.48,-29879.1,-7787.59,-330.537,-7787.59,-21282.5,10,472,477,738,739,3421
19316.5,0.0199114,0.00171042,0.00293889,0.012817,0.00293889,-0.00860114,-0.00617694,0.012817,-0.00617694,0.00993735,79914.3,2004.43,8447.11,2004.43,73365.6,-3846.28,8447.11,-3846.28,85034.4,10,615,887,891,892,3422
14160.8,0.0145475,0.00833889,0.002436,0.000970888,0.002436,-0.00528243,-0.0100267,0.000970888,-0.0100267,-0.00231562,18865.3,1562.11,602.943,1562.11,9960.67,-6501.93,602.943,-6501.93,12000.3,10,609,877,878,880,3423
16481,0.0169476,0.0100185,0.00700761,0.00246671,0.00700761,-0.0108469,-0.00699861,0.00246671,-0.00699861,0.00227128,38849.8,4502.1,1543.91,4502.1,25165.5,-4462.11,1543.91,-4462.11,33874.9,10,603,604,607,871,3424
20974.6,0.0215073,0.0136595,0.00825161,0.00844597,0.00825161,-0.0078844,-0.00815147,0.00844597,-0.00815147,-0.00577562,-13702.5,5379.32,5542.85,5379.32,-27558.3,-5289.23,5542.85,-5289.23,-26378.2,10,453,704,867,873,3425
14997.8,0.0153316,0.00725073,0.00202728,-0.00303511,0.00202728,-0.00984056,-0.00943256,-0.00303511,-0.00943256,0.000411411,-76843.3,1256.94,-2013.15,1256.94,-88159.7,-6064.78,-2013.15,-6064.78,-81219.1,10,608,610,611,879,3426
17907.7,0.0183885,0.0064385,-0.00474487,0.00215555,-0.00474487,-0.0100712,-0.0120769,0.00215555,-0.0120769,0.00429447,8927.11,-3037.01,1449.29,-3037.01,-1982.3,-7737.69,1449.29,-7737.69,7695.78,10,476,477,738,743,3427
8158.53,0.00838783,0.00355084,-0.00436964,-0.00123547,-0.00436964,-0.00240138,-0.00480736,-0.00123547,-0.00480736,-0.00015743,30761.8,-2838.91,-785.411,-2838.91,26851.9,-3103.46,-785.411,-3103.46,28391,10,473,733,734,739,3428
26071.7,0.0268531,0.0014113,-0.0196734,-0.00800678,-0.0196734,-0.00558769,-0.0069538,-0.00800678,-0.0069538,0.00724984,64270.4,-12710.1,-5175.12,-12710.1,59566.6,-4550.79,-5175.12,-4550.79,67920.6,10,485,491,750,755,3429
17142.2,0.0175757,0.00391611,-0.00043412,-0.00195353,-0.00043412,-0.00821864,-0.0133498,-0.00195353,-0.0133498,0.00400738,-22056.7,-275.845,-1263.34,-275.845,-30031.6,-8643.58,-1263.34,-8643.58,-21920.2,10,476,737,742,743,3430
18141.7,0.0186293,0.00552227,-0.00183735,-0.000405061,-0.00183735,-0.00978207,-0.0134706,-0.000405061,-0.0134706,0.004956,8965.18,-1167.33,-231.819,-1167.33,-1087.73,-8688.13,-231.819,-8688.13,8695.16,10,476,480,742,743,3431
16749.9,0.017248,0.00892902,-0.00183281,-0.00335669,-0.00183281,-0.00909034,-0.0111886,-0.00335669,-0.0111886,0.00245073,64759.7,-1211.05,-2189.2,-1211.05,53106.5,-7240.65,-2189.2,-7240.65,60561.9,10,454,705,706,731,3432
14542.7,0.0149485,0.0064041,-0.00305933,-0.00239965,-0.00305933,-0.00762669,-0.0100189,-0.00239965,-0.0100189,0.00232919,28775.2,-1974.88,-1557.33,-1974.88,19692.4,-6510,-1557.33,-6510,26104.8,10,454,706,731,737,3433
19358,0.0198959,0.00405574,0.000633199,-0.0123113,0.000633199,-0.00652192,-0.0104235,-0.0123113,-0.0104235,0.00375551,25043.9,323.517,-8159.99,323.517,18195.2,-6600.09,-8159.99,-6600.09,24586.1,10,466,725,726,732,3434
9574.69,0.0098128,0.00168926,0.00533527,-0.00327968,0.00533527,0.00106042,0.00496132,-0.00327968,0.00496132,-0.00361016,-31217.5,3442.27,-2073.94,3442.27,-31712.5,3284.02,-2073.94,3284.02,-34733.8,10,557,814,837,851,3435
18256.3,0.0187629,0.00777285,-0.00249221,-0.000913879,-0.00249221,-0.0071423,-0.0141897,-0.000913879,-0.0141897,0.000579779,26670,-1568.62,-551.655,-1568.62,16858.6,-9177.47,-551.655,-9177.47,22115.1,10,476,737,738,743,3436
35146.5,0.035745,0.0148368,0.0158585,0.00808023,0.0158585,-0.00133481,-0.0196378,0.00808023,-0.0196378,-0.0171532,-171647,10381.7,5937.91,10381.7,-180301,-12325.3,5937.91,-12325.3,-193128,10,600,617,888,889,3437
20660.2,0.0211634,0.00582172,0.0101458,0.0051967,0.0101458,-0.0131263,-0.00898,0.0051967,-0.00898,0.00667851,-38493.9,6634.02,3530.46,6634.02,-50463.4,-6024.04,3530.46,-6024.04,-38067.4,10,599,600,866,888,3438
15843,0.0162465,0.0063867,0.00282114,0.000338216,0.00282114,-0.00909034,-0.0111886,0.000338216,-0.0111886,0.00245073,-16939.9,1888.33,247.488,1888.33,-26980.1,-7266.65,247.488,-7266.65,-19489.8,10,454,705,706,878,3439
38129.9,0.0391932,0.0170473,0.013022,0.00243161,0.013022,-0.00257665,-0.0276584,0.00243161,-0.0276584,-0.0113658,34774.5,8522.46,2195.78,8522.46,23967.7,-17519.2,2195.78,-17519.2,14770.6,10,451,452,703,889,3440
15962,0.0163682,0.00779364,0.00794127,-0.000668404,0.00794127,-0.00876438,-0.00827102,-0.000668404,-0.00827102,0.000708454,-16387.6,5105.78,-491.279,5105.78,-27350.6,-5320.94,-491.279,-5320.94,-20988.1,10,603,606,607,875,3441
14392.7,0.0147782,0.00810369,0.00470498,-0.00242509,0.00470498,-0.00782592,-0.00850528,-0.00242509,-0.00850528,0.000165333,8893.31,3025.4,-1606.28,3025.4,-1626.38,-5444.18,-1606.28,-5444.18,3819.66,10,607,610,875,879,3442
17634.2,0.0180772,0.00775956,0.0106283,0.00447759,0.0106283,-0.00944655,-0.00604146,0.00447759,-0.00604146,0.00132354,-22500.7,6824.45,2806,6824.45,-34021.6,-3909.48,2806,-3909.48,-26770.3,10,598,602,603,870,3443
14980.5,0.0153921,0.00783719,0.000797182,0.000497512,0.000797182,-0.0116617,-0.00819547,0.000497512,-0.00819547,0.00470301,21713,468.891,294.455,468.891,8911.8,-5173.65,294.455,-5173.65,19817,10,608,611,879,880,3444
19906,0.0204481,0.00292325,0.00506451,0.00629074,0.00506451,-0.0141345,-0.00835011,0.00629074,-0.00835011,0.0122189,13586,3733.99,4387.24,3733.99,3222.16,-5365.38,4387.24,-5365.38,19795.1,10,619,622,894,895,3445
38176.4,0.0389615,0.0256141,0.00564797,0.00739727,0.00564797,-0.0141984,-0.0233166,0.00739727,-0.0233166,-0.0126188,-97447.9,3906.79,5288.02,3906.79,-121781,-15120.2,5288.02,-15120.2,-123680,10,451,452,617,889,3446
27778.1,0.0284412,0.0146211,0.0128315,0.00443105,0.0128315,-0.0197956,-0.0103917,0.00443105,-0.0103917,0.00481857,-42462.3,8997.36,3428.91,8997.36,-63194,-7168.83,3428.91,-7168.83,-48709.3,10,621,803,804,893,3447
29377.3,0.0301135,0.00343831,-0.0211983,-0.00293782,-0.0211983,-0.00742657,-0.0133666,-0.00293782,-0.0133666,0.00447355,-28774.2,-13997.7,-2922.62,-13997.7,-31335.8,-8805.59,-2922.62,-8805.59,-26582.2,10,489,700,753,757,3448
28023.3,0.0287438,-0.00197517,-0.0110089,-0.0177218,-0.0110089,-0.00586261,-0.0113388,-0.0177218,-0.0113388,0.00857735,-18263.1,-7126.87,-11804.5,-7126.87,-20106.8,-7114.59,-11804.5,-7114.59,-11407.6,10,484,485,490,754,3449
29025.1,0.0298695,0.00521216,-0.0171988,-0.00492449,-0.0171988,-0.00930095,-0.0164228,-0.00492449,-0.0164228,0.00690969,48789.6,-11572.2,-3831.74,-11572.2,41991.3,-10495.6,-3831.74,-10495.6,51005.3,10,489,490,754,757,3450
28726.5,0.0295994,0.0205244,-0.0111059,-0.00754103,-0.0111059,-0.0103674,-0.0138818,-0.00754103,-0.0138818,-0.00661809,83972.1,-7108.34,-5507.01,-7108.34,65489.9,-8972.11,-5507.01,-8972.11,65513.8,10,451,483,702,703,3451
33845.6,0.0344601,0.0209376,-0.00709696,-0.00281199,-0.00709696,-0.0241515,-0.0179759,-0.00281199,-0.0179759,9.40449e-05,-145808,-4719.8,-2158.75,-4719.8,-173933,-12527.3,-2158.75,-12527.3,-160680,10,483,702,703,747,3452
23187.2,0.0237403,0.0080546,-0.000948823,-0.00262163,-0.000948823,0.000289293,-0.0184733,-0.00262163,-0.0184733,-0.00908582,-46389.2,-550.038,-1761.81,-550.038,-51064.3,-11909.7,-1761.81,-11909.7,-57974.2,10,465,471,724,732,3453
48540.7,0.0492189,-0.00346126,-0.0281794,0.000209191,-0.0281794,-0.0206846,-0.0244113,0.000209191,-0.0244113,0.0204544,-244143,-18943.9,-1291.85,-18943.9,-250121,-16416.8,-1291.85,-16416.8,-226174,10,489,493,494,757,3454
34675.2,0.0355271,0.00655941,-0.022027,-0.0136616,-0.022027,-0.00979118,-0.0140539,-0.0136616,-0.0140539,0.0039847,-35366.3,-14465.7,-9666.24,-14465.7,-42948.6,-9012.72,-9666.24,-9012.72,-36421.1,10,484,489,748,754,3455
30912.6,0.0317652,0.00297667,-0.0153801,-0.0194928,-0.0153801,-0.00627911,-0.0101092,-0.0194928,-0.0101092,0.00541441,19925.7,-10019.4,-12853.6,-10019.4,14764.3,-6346.51,-12853.6,-6346.51,21583.3,10,467,484,485,749,3456
24145.3,0.0246635,0.0021937,-0.00134641,-0.0168373,-0.00134641,-0.00852736,-0.01113,-0.0168373,-0.01113,0.00424202,-95146.3,-847.354,-11154.1,-847.354,-102153,-7122.75,-11154.1,-7122.75,-94340.4,10,465,466,725,748,3457
43532.1,0.0449557,0.0206234,0.0137968,0.0227732,0.0137968,-0.0282573,-0.0100443,0.0227732,-0.0100443,0.0142302,126938,9489.09,15138.7,9489.09,96652.4,-6838.11,15138.7,-6838.11,122244,10,616,620,621,893,3458
15182.8,0.0155802,0.0102682,0.00329667,0.00415796,0.00329667,-0.00823199,-0.00809162,0.00415796,-0.00809162,-0.00191194,-1185.8,2141.8,2680.84,2141.8,-13267,-5239.99,2680.84,-5239.99,-9058.27,10,604,871,872,876,3459
16198.3,0.0166191,0.00813419,0.00681488,-0.00277267,0.00681488,-0.0107877,-0.0076197,-0.00277267,-0.0076197,0.00271546,-6135.76,4369.54,-1849.55,4369.54,-18619.2,-4848.29,-1849.55,-4848.29,-9648.69,10,607,871,875,876,3460
28136.6,0.0288189,0.0222564,0.00860516,0.00533433,0.00860516,-0.0109683,-0.0121455,0.00533433,-0.0121455,-0.0114067,-29900.3,5610.29,3958.38,5610.29,-50276.1,-7769.11,3958.38,-7769.11,-52649.3,10,451,702,804,889,3461
17963.8,0.0184616,0.0010266,0.00787587,0.00775034,0.00787587,-0.0105915,-0.0044185,0.00775034,-0.0044185,0.0107344,21741.8,5043.56,5000.87,5043.56,14001.3,-2897.47,5000.87,-2897.47,27933.2,10,614,885,886,890,3462
24880.4,0.0253952,0.009318,-0.00085333,-0.00300784,-0.00085333,-0.00450445,-0.0198712,-0.00300784,-0.0198712,-0.00728052,-105218,-562.155,-2051.16,-562.155,-113748,-12921.6,-2051.16,-12921.6,-116554,10,452,453,704,724,3463
23447.1,0.0240487,0.00460815,0.0148306,0.00406654,0.0148306,-0.0156006,0.000907774,0.00406654,0.000907774,0.011328,-14580.4,9572.1,2664.07,9572.1,-27910.7,542.122,2664.07,542.122,-10316.4,10,560,575,834,854,3464
21007,0.0214764,-0.00648296,0.0111188,-0.00944073,0.0111188,-0.00492221,0.00736785,-0.00944073,0.00736785,0.00962174,-84279.2,7127.94,-6364.41,7127.94,-83056.6,4930.01,-6364.41,4930.01,-74007.6,10,559,560,839,854,3465
11353.8,0.0116858,-0.00185219,0.00496554,-0.00554796,0.00496554,0.000647028,0.00641848,-0.00554796,0.00641848,0.00295664,48440.4,3192.14,-3614.77,3192.14,50050.1,4170.13,-3614.77,4170.13,51487.4,10,558,573,574,852,3466
25736.8,0.02641,0.00639036,-0.0154626,-0.00108342,-0.0154626,-0.0187187,0.00101367,-0.00108342,0.00101367,0.013139,-4606.6,-10339.8,-672.034,-10339.8,-20176.1,707.564,-672.034,707.564,138.044,10,515,529,722,779,3467
22389,0.02302,0.00763411,-0.0134324,-0.00162795,-0.0134324,-0.0161512,0.00165211,-0.00162795,0.00165211,0.0102529,34365.2,-8976.29,-985.241,-8976.29,19564.3,1183.74,-985.241,1183.74,36352.6,10,515,721,722,779,3468
19422.5,0.0199834,0.00316279,-0.00280045,-0.0152418,-0.00280045,-0.00459376,-0.00622532,-0.0152418,-0.00622532,0.00336508,44952.3,-1849.01,-9903.55,-1849.01,39895.4,-3961.18,-9903.55,-3961.18,44970.2,10,467,472,726,733,3469
7799.09,0.00799439,-0.00139396,-0.00376284,0.00493009,-0.00376284,0.00253053,0.00187418,0.00493009,0.00187418,-0.00194473,-29961,-2435.08,3201.34,-2435.08,-27452.6,1239.92,3201.34,1239.92,-30427.3,10,512,516,762,780,3470
16831.9,0.0172591,0.00518415,-0.00783279,0.004854,-0.00783279,0.00169998,0.0099068,0.004854,0.0099068,-0.00713823,-19229.4,-4992.58,2941.18,-4992.58,-21820,6588.71,2941.18,6588.71,-27403.3,10,526,763,776,790,3471
15082.4,0.0154166,0.00075262,0.00607854,-0.00671016,0.00607854,0.000429207,0.00953433,-0.00671016,0.00953433,-0.00341489,-82905.9,3884.69,-4325.85,3884.69,-83270.9,6280.65,-4325.85,6280.65,-85850.3,10,557,558,573,837,3472
13255.3,0.0136402,-0.00116919,0.00461186,-0.0093051,0.00461186,0.00110191,0.00541288,-0.0093051,0.00541288,0.00178246,45374.7,2943.84,-6053.2,2943.84,46759.7,3528.66,-6053.2,3528.66,47060.4,10,573,837,851,852,3473
9872.39,0.0101388,-0.00229915,0.00369083,-0.00518021,0.00369083,0.00370149,0.0051631,-0.00518021,0.0051631,-0.00101387,6033.11,2361.03,-3374.22,2361.03,9885.4,3365.91,-3374.22,3365.91,6748.32,10,572,851,855,856,3474
11969.9,0.0122676,0.00774127,0.00380945,-0.00328935,0.00380945,-0.00786202,0.00515313,-0.00328935,0.00515313,-0.00065786,-27258.9,2347.11,-2056.04,2347.11,-37549.2,3389.48,-2056.04,3389.48,-32836.6,10,572,577,855,856,3475
8029.99,0.00821176,-0.00092714,0.00109285,-0.00695017,0.00109285,-0.0012848,0.000797261,-0.00695017,0.000797261,4.02639e-07,-74962.9,704.176,-4535.4,704.176,-75259.7,525.838,-4535.4,525.838,-74488.4,10,540,557,572,814,3476
15054.5,0.0154469,-0.00239617,0.00490025,-0.011528,0.00490025,0.000865626,0.00418878,-0.011528,0.00418878,0.00158481,-11365.1,3135.22,-7522.75,3135.22,-9329.51,2739.13,-7522.75,2739.13,-9021.7,10,558,837,838,852,3477
7378.71,0.00757162,0,0,-0.00654676,0,0,0.000356204,-0.00654676,0.000356204,-0.00017422,-8329.11,-3.03009,-4252.2,-3.03009,-8384.64,231.359,-4252.2,231.359,-8553.84,10,540,572,813,814,3478
10208.5,0.0104249,-0.00264013,0.000929601,-0.00875776,0.000929601,0.000168128,0.00134341,-0.00875776,0.00134341,-0.000520932,-103244,597.365,-5727.16,597.365,-101504,888.043,-5727.16,888.043,-102048,10,539,557,561,815,3479
7312.5,0.00746336,-0.00228376,-0.00267007,0.0057243,-0.00267007,-0.00133476,0.000538167,0.0057243,0.000538167,0.000214101,-113718,-1740.67,3748.67,-1740.67,-113155,369.861,3748.67,369.861,-112180,10,497,516,520,761,3480
10614.1,0.0108363,-0.00258756,-0.00105965,0.0090489,-0.00105965,-6.10299e-05,0.00179802,0.0090489,0.00179802,-0.000483882,-108126,-676.297,5919.22,-676.297,-106574,1185.24,5919.22,1185.24,-106954,10,499,512,526,763,3481
15222.4,0.0155472,-3.17107e-05,-0.00720359,0.00674532,-0.00720359,0.000942222,0.00883894,0.00674532,0.00883894,-0.003618,-98857.9,-4638.7,4322.29,-4638.7,-98478.4,5868.68,4322.29,5868.68,-101441,10,512,513,517,776,3482
14398.6,0.0147273,0.00455316,0.00248346,0.0104688,0.00248346,-0.00157674,-0.00491149,0.0104688,-0.00491149,-0.00484942,-67854.9,1626.55,6826.68,1626.55,-71844.3,-3174.81,6826.68,-3174.81,-74020.4,10,599,866,871,872,3483
14537.7,0.0148973,0.0043495,-0.00498819,0.00137387,-0.00498819,-0.00881107,-0.00919796,0.00137387,-0.00919796,0.00371278,-32068.3,-3204.67,950.301,-3204.67,-40802.4,-5897.45,950.301,-5897.45,-32401.2,10,478,482,740,744,3484
29233.7,0.030055,-0.000896634,0.0218134,0.0065672,0.0218134,-0.00885618,-0.00689932,0.0065672,-0.00689932,0.012013,27253,14148.2,4343.52,14148.2,22399.5,-4526.77,4343.52,-4526.77,35705.2,10,614,615,619,891,3485
13198.3,0.0135462,0.00798634,0.00257788,0.000522801,0.00257788,-0.00866618,-0.00780565,0.000522801,-0.00780565,0.000823391,856.92,1564.67,283.364,1564.67,-10104.2,-5025.03,283.364,-5025.03,-3759.18,10,606,870,874,875,3486
12812.6,0.0131851,0.00844097,0.00448333,-0.00430533,0.00448333,-0.00333449,-0.00673075,-0.00430533,-0.00673075,-0.00339185,52208.4,2874.37,-2789.4,2874.37,44407.2,-4333.15,-2789.4,-4333.15,44558.1,10,591,606,607,875,3487
31904.8,0.0327974,0.0027033,-0.0164772,-0.0158276,-0.0164772,-0.0002033,-0.016795,-0.0158276,-0.016795,-4.05483e-05,27082.1,-10539.6,-10638.4,-10539.6,26355.5,-10690.5,-10638.4,-10690.5,25344.8,10,466,467,484,749,3488
31900.8,0.0325443,0.00869843,-0.012359,-0.0125674,-0.012359,-0.00333824,-0.0203216,-0.0125674,-0.0203216,-0.00749029,-115996,-8087.22,-8703.05,-8087.22,-122539,-12999.1,-8703.05,-12999.1,-126696,10,465,483,724,748,3489
7413.39,0.00760449,0.00229157,0.00335365,-0.000489118,0.00335365,-0.00530868,-0.00342556,-0.000489118,-0.00342556,0.00263013,-13723.7,2141.11,-358.069,2141.11,-18788,-2168.27,-358.069,-2168.27,-13520.8,10,588,595,596,862,3490
15610.2,0.0160371,0.0120898,0.000588945,-0.000945991,0.000588945,-0.0116422,-0.00713012,-0.000945991,-0.00713012,0.000383185,21996.9,100.233,-712.693,100.233,6477.2,-4524.28,-712.693,-4524.28,14504.6,10,601,602,823,869,3491
19976.8,0.0205274,0.0093636,0.0127038,0.00136007,0.0127038,-0.00692554,-0.00918987,0.00136007,-0.00918987,-0.00123468,24145.5,8253.82,820.719,8253.82,13680.7,-6005.78,820.719,-6005.78,17385.7,10,599,600,604,872,3492
11241,0.0115418,0.00762332,0.00239493,0.00197543,0.00239493,-0.00792925,-0.00544133,0.00197543,-0.00544133,0.000607827,8184.55,1449.5,1234.16,1449.5,-2045.41,-3494.89,1234.16,-3494.89,3664.98,10,602,606,823,874,3493
13370.9,0.0137078,0.00191774,0.00562808,0.00285651,0.00562808,-0.00506159,-0.00911434,0.00285651,-0.00911434,0.00261497,-24900.8,3628.71,1795.11,3628.71,-29619.3,-5914.53,1795.11,-5914.53,-24437.5,10,589,602,606,823,3494
40933.9,0.0421869,0.0115716,0.0226056,0.00308441,0.0226056,0.00855095,-0.0245141,0.00308441,-0.0245141,-0.0151013,81843.7,14574.5,2862.97,14574.5,82069.8,-15120.5,2862.97,-15120.5,63850.9,10,599,600,617,888,3495
18719.8,0.0191502,0.0121974,0.00376189,0.00628197,0.00376189,-0.00451287,-0.00972741,0.00628197,-0.00972741,-0.00923467,-59798.1,2369.98,3976.93,2369.98,-70630.6,-6324.27,3976.93,-6324.27,-74053.9,10,600,605,867,872,3496
15627.7,0.0160256,0.00245121,0.00996929,0.00195868,0.00996929,-0.010132,-0.00275727,0.00195868,-0.00275727,0.00741186,-19513.4,6397.74,1196.47,6397.74,-28018.9,-1705.02,1196.47,-1705.02,-16407,10,601,863,868,869,3497
17684.5,0.0181556,0.00466976,-0.0141019,-0.00172785,-0.0141019,-0.00726583,-0.00180009,-0.00172785,-0.00180009,0.00312317,3994.54,-9110.63,-1067.59,-9110.63,-3993.05,-1184.46,-1067.59,-1184.46,2873.54,10,523,525,719,789,3498
26231,0.0269391,0.00549986,-0.0205398,-0.00339585,-0.0205398,-0.00999372,-0.00539487,-0.00339585,-0.00539487,0.00583162,11217.8,-13214.7,-2144.61,-13214.7,562.277,-3547.17,-2144.61,-3547.17,11132.6,10,442,443,487,756,3499
15771.9,0.0161958,0.00909905,0.0040003,0.00627053,0.0040003,-0.0066203,-0.00873604,0.00627053,-0.00873604,-0.00191384,11182.4,2628.57,4161.95,2628.57,1198.06,-5671.74,4161.95,-5671.74,4001.8,10,453,605,705,873,3500
17618,0.018092,0.0048202,-0.0116653,-0.00323744,-0.0116653,-0.00969912,-0.004989,-0.00323744,-0.004989,0.00556143,9144.7,-7489.18,-2056.44,-7489.18,-570.171,-3240.18,-2056.44,-3240.18,9499.03,10,441,442,487,719,3501
10946.6,0.0112234,0.00124267,0.0044727,-0.00514493,0.0044727,0.00334149,0.00533127,-0.00514493,0.00533127,-0.00515276,-23533.3,2878.31,-3267.75,2878.31,-22311.9,3537.97,-3267.75,3537.97,-27848.9,10,557,561,815,837,3502
15942.6,0.0163682,-0.00239637,0.00487044,-0.0111111,0.00487044,0.000479184,0.00692594,-0.0111111,0.00692594,0.00238446,464.871,3082.96,-7260.8,3082.96,2295.68,4518.91,-7260.8,4518.91,3309.03,10,558,838,852,853,3503
19437.8,0.0200044,-0.00501176,0.00663659,-0.0130481,0.00663659,0.00338173,0.0078315,-0.0130481,0.0078315,0.00373139,44799.6,4154.18,-8562.08,4154.18,50218,5084.96,-8562.08,5084.96,50066.1,10,558,559,562,839,3504
8558.73,0.00875244,-0.00131526,-0.00124054,0.0073131,-0.00124054,-0.00104032,0.0013498,0.0073131,0.0013498,0.000155608,-75288.5,-796.662,4774.5,-796.662,-75177.1,888.603,4774.5,888.603,-74469.8,10,498,512,516,762,3505
18688.3,0.0190914,0.00123695,0.00824853,-0.00627023,0.00824853,0.000466767,0.0125589,-0.00627023,0.0125589,-0.00408715,-93671,5250.24,-4021.15,5250.24,-94337.5,8287.86,-4021.15,8287.86,-97417.2,10,558,561,562,841,3506
7843.45,0.00806437,-0.00221067,-0.00408564,0.00403225,-0.00408564,0.00323232,0.00288615,0.00403225,0.00288615,-1.82201e-06,28209.5,-2629.25,2627.99,-2629.25,31705.5,1891.79,2627.99,1891.79,29559.1,10,516,780,784,785,3507
15989.4,0.0163723,-0.00575545,-0.0048261,0.0119477,-0.0048261,0.00390946,0.00328042,0.0119477,0.00328042,0.000708367,-53427.8,-3093.26,7815.42,-3093.26,-47172.5,2123.15,7815.42,2123.15,-49382.1,10,513,527,777,790,3508
36125,0.0369562,0.0144751,0.00893523,-0.0207958,0.00893523,-0.0231241,0.0101441,-0.0207958,0.0101441,0.00860092,-59019.3,5931.89,-14203.3,5931.89,-81597.7,7238.49,-14203.3,7238.49,-62910.5,10,567,570,571,850,3509
35014.8,0.0358336,0.0153225,-0.00900665,0.019259,-0.00900665,-0.0238308,0.00854573,0.019259,0.00854573,0.00855995,-51307.1,-6097.8,13172.8,-6097.8,-74987.3,6254.38,13172.8,6254.38,-55663.8,10,532,535,536,799,3510
11664.5,0.0119446,0.0047831,0.00740209,0.000844013,0.00740209,-0.00852627,0.000988602,0.000844013,0.000988602,0.00245525,-45157.5,4696.96,564.042,4696.96,-54069,676.329,564.042,676.329,-46787.1,10,577,856,857,859,3511
18929.8,0.0194272,0.0154933,0.00637997,-0.00109778,0.00637997,-0.0154069,-0.00155779,-0.00109778,-0.00155779,0.000298219,4261.89,3727.72,-734.518,3727.72,-16138.2,-979.742,-734.518,-979.742,-5769.1,10,578,858,859,860,3512
26949.1,0.0276256,0.00830455,0.0161159,0.00225032,0.0161159,-0.0200221,0.000726722,0.00225032,0.000726722,0.0120129,-23117.1,10748.2,1424.17,10748.2,-40929,544.502,1424.17,544.502,-20414.2,10,560,564,835,840,3513
20637.9,0.0212537,0.0136393,0.00756661,0.00832383,0.00756661,-0.00485569,-0.00944963,0.00832383,-0.00944963,-0.00620596,69594.9,4886.42,5442.71,4886.42,57783.3,-6094.11,5442.71,-6094.11,56662.5,10,453,605,867,873,3514
19892.2,0.0205913,0.0109604,0.00667651,-0.00737746,0.00667651,-0.012072,0.00828471,-0.00737746,0.00828471,0.00673958,166896,4497.86,-4930.34,4497.86,152575,5481.65,-4930.34,5481.65,163994,10,563,566,842,843,3515
18931.4,0.0193708,-0.00730077,-0.00636037,0.0113134,-0.00636037,0.00151631,0.00871343,0.0113134,0.00871343,0.00437729,-68361.4,-4018.2,7477.2,-4018.2,-62555.3,5695.94,7477.2,5695.94,-61028.9,10,513,514,777,782,3516
29137.1,0.0296234,0.00960709,-0.00705177,0.0130015,-0.00705177,-0.0144964,0.0170705,0.0130015,0.0170705,0.000427052,-181155,-4951.41,9026.67,-4951.41,-195797,11092,9026.67,11092,-187430,10,528,531,532,792,3517
23458.6,0.0240964,-0.00326712,-0.0118758,0.0119368,-0.0118758,-0.00790511,0.00622298,0.0119368,0.00622298,0.0124015,9023.66,-7596.11,7944.36,-7596.11,6166.17,4212.55,7944.36,4212.55,18930.8,10,514,515,528,778,3518
11610.8,0.0119467,0.00466768,0.0037071,0.000696018,0.0037071,-0.00281826,-0.00885049,0.000696018,-0.00885049,-0.000268597,46854.4,2404.69,426.254,2404.69,41889.9,-5717.58,426.254,-5717.58,43770.4,10,593,611,612,882,3519
24440.4,0.0250443,0.00276646,-0.0195632,-0.00113782,-0.0195632,-0.0103691,-0.001007,-0.00113782,-0.001007,0.00745712,-33731.6,-12718.5,-705.643,-12718.5,-42340.8,-675.037,-705.643,-675.037,-30714.8,10,443,515,519,721,3520
14604.8,0.0150028,0.00139103,0.0050188,0.00443014,0.0050188,-0.00779371,-0.00820492,0.00443014,-0.00820492,0.00713131,13395.6,3203.76,2807.8,3203.76,7282.04,-5332.81,2807.8,-5332.81,17084.7,10,588,596,862,868,3521
14955.8,0.0153262,0.000640819,0.00727844,0.00228533,0.00727844,-0.00813407,-0.00785939,0.00228533,-0.00785939,0.00678209,-33873.3,4683.71,1437.93,4683.71,-39764.6,-5110.88,1437.93,-5110.88,-29943.8,10,588,824,862,868,3522
19600.9,0.0201132,0.00427853,0.0130993,0.00484858,0.0130993,-0.0111119,-0.00340985,0.00484858,-0.00340985,0.00718443,-5648.75,8427.65,3097.02,8427.65,-15979.7,-2197.18,3097.02,-2197.18,-3899.4,10,595,861,862,884,3523
22693.7,0.0233466,0.00455798,0.0141285,0.00546003,0.0141285,-0.013423,-0.00441545,0.00546003,-0.00441545,0.0109667,44025.1,8931.5,3454.58,8931.5,31658,-2879.14,3454.58,-2879.14,47857.1,10,613,884,885,890,3524
15394.4,0.0157833,0.00780449,0.006533,0.00185986,0.006533,-0.0108885,-0.00688318,0.00185986,-0.00688318,0.00268674,-19871.7,4197.35,1149.12,4197.35,-32190.7,-4401.59,1149.12,-4401.59,-23162,10,603,870,871,875,3525
25076.3,0.0256971,-0.00778742,0.0162318,0.00815424,0.0162318,-0.00477043,-0.00675029,0.00815424,-0.00675029,0.0124921,-41065.3,10306.2,5670.9,10306.2,-36452.4,-4146.73,5670.9,-4146.73,-26669.8,10,619,620,622,895,3526
26588,0.0272493,0.00259647,0.0211882,0.00355451,0.0211882,-0.00895282,-0.00555521,0.00355451,-0.00555521,0.00648262,-30502.6,13693.1,2258.48,13693.1,-38675.5,-3622.63,2258.48,-3622.63,-28292.2,10,551,552,833,890,3527
26619.9,0.0272431,0.0034371,0.0194175,0.00487358,0.0194175,-0.0114989,-0.00755059,0.00487358,-0.00755059,0.00733583,-57443.3,12503.9,3125.63,12503.9,-67868.3,-4973.21,3125.63,-4973.21,-55269.1,10,551,613,618,890,3528
15800.9,0.0162013,0.00331509,0.00928552,0.00377474,0.00928552,-0.00904124,-0.00595837,0.00377474,-0.00595837,0.00539292,-21294.5,5938.52,2387.8,5938.52,-29658.4,-3875.43,2387.8,-3875.43,-20068.6,10,550,595,613,884,3529
19794.1,0.0203295,0.000865196,0.00992642,0.00632668,0.00992642,-0.0121371,-0.00484718,0.00632668,-0.00484718,0.0121667,9197.9,6374.17,4103.69,6374.17,556.237,-3193.93,4103.69,-3193.93,16400.2,10,614,886,890,891,3530
21093.2,0.0215986,0.00352781,0.0144663,0.00317118,0.0144663,-0.0120035,-0.00481063,0.00317118,-0.00481063,0.00764879,-47004.3,9269.82,1962.57,9269.82,-57735.1,-3073.87,1962.57,-3073.87,-44567.8,10,596,613,614,885,3531
23968.6,0.0244612,0.0168958,0.011282,0.00328279,0.011282,-0.0114835,-0.00841338,0.00328279,-0.00841338,-0.00805069,-103038,7407.92,2455.47,7407.92,-121127,-5502.62,2455.47,-5502.62,-119534,10,452,703,867,889,3532
15976.3,0.0163914,0.00302613,0.00885892,0.00561527,0.00885892,-0.00956489,-0.00441216,0.00561527,-0.00441216,0.00658893,-9437.08,5655.62,3588.26,5655.62,-17941.8,-2876.8,3588.26,-2876.8,-7240.95,10,595,596,613,884,3533
18208.8,0.0187145,0.00742967,0.0140656,0.000462549,0.0140656,-0.00761178,-0.00270488,0.000462549,-0.00270488,0.00140007,26908.3,9131.47,265.94,9131.47,17185.2,-1763.68,265.94,-1763.68,23026.2,10,549,550,831,861,3534
11553.3,0.0118757,0.00427853,0.00848695,-0.000648212,0.00848695,-0.00574489,-0.00219928,-0.000648212,-0.00219928,0.00244717,27486.3,5477.32,-469.802,5477.32,20851.6,-1344.12,-469.802,-1344.12,26261.7,10,588,595,861,862,3535
10939.4,0.011218,-0.000583362,0.00805015,-0.000937079,0.00805015,-0.00520374,-0.000929656,-0.000937079,-0.000929656,0.00532205,-21417,5208.99,-668.93,5208.99,-24567.6,-525.892,-668.93,-525.892,-17639.4,10,588,824,861,862,3536
17976.8,0.0184354,0.0116531,0.00405657,0.00308383,0.00405657,-0.0140015,-0.00777954,0.00308383,-0.00777954,0.00223399,-12639.1,2280.09,1839.69,2280.09,-29635.9,-5012.18,1839.69,-5012.18,-18817.5,10,597,601,602,869,3537
11988.2,0.0123299,0.00223446,-0.00793139,-0.00101687,-0.00793139,-0.00367071,-0.00610466,-0.00101687,-0.00610466,0.00278659,37466.9,-5126.04,-615.78,-5126.04,33515.2,-3940.49,-615.78,-3940.49,37826.8,10,464,470,730,736,3538
28443,0.0292781,0.0147073,0.0101396,0.00136064,0.0101396,-0.00450445,-0.0198712,0.00136064,-0.0198712,-0.00728052,61227.3,6677.13,1148.41,6677.13,49383,-12779.6,1148.41,-12779.6,46580.4,10,452,453,704,867,3539
20796.5,0.021375,0.00517716,-0.0139773,-0.00236518,-0.0139773,-0.0113937,-0.00588503,-0.00236518,-0.00588503,0.00762859,26507.7,-8930.84,-1465.81,-8930.84,15289.5,-3809.15,-1465.81,-3809.15,27888.2,10,487,728,751,752,3540
20350.2,0.0208257,0.0093609,-0.00225235,-0.000364998,-0.00225235,-0.00874883,-0.0153802,-0.000364998,-0.0153802,-0.00183863,-54744.2,-1523.86,-291.117,-1523.86,-66429.7,-10035.6,-291.117,-10035.6,-62123.2,10,453,454,705,731,3541
12666.7,0.0130331,0.00246458,-0.00866879,-0.00059931,-0.00866879,-0.0056506,-0.00466521,-0.00059931,-0.00466521,0.00480874,45494.8,-5592.36,-363.116,-5592.36,40120.7,-3011.47,-363.116,-3011.47,46974,10,440,441,470,730,3542
12101.6,0.0124221,0.00742992,-0.00764409,7.29416e-05,-0.00764409,-0.00762915,0.000726065,7.29416e-05,0.000726065,0.000365298,2769,-4862.52,51.6823,-4862.52,-7211.59,486.92,51.6823,486.92,-1922.82,10,521,522,786,788,3543
33535.5,0.0344551,0.00508033,-0.0190629,0.0221786,-0.0190629,0.00295821,0.00141661,0.0221786,0.00141661,-0.00577152,16656.7,-11784.1,14937.4,-11784.1,18784.3,-415.765,14937.4,-415.765,11826.1,10,529,533,723,796,3544
17272.4,0.0177161,0.00719033,-0.00518876,0.00261481,-0.00518876,-0.0136633,0.00786252,0.00261481,0.00786252,0.00642222,-12717.4,-3946.25,2037.29,-3946.25,-25338,5322.83,2037.29,5322.83,-13136.4,10,529,723,793,796,3545
23268.5,0.0237881,0.00700269,-0.0102559,0.00508178,-0.0102559,-0.0193024,0.00510921,0.00508178,0.00510921,0.0106703,-76532.8,-7513.9,3629.95,-7513.9,-92043.6,3485.18,3629.95,3485.18,-73534.5,10,529,722,723,793,3546
26858.2,0.0275604,0.00778797,-0.00908442,0.00171927,-0.00908442,-0.0232264,0.00713081,0.00171927,0.00713081,0.0163355,-4247.96,-6880.45,1479.85,-6880.45,-22959.2,4890.3,1479.85,4890.3,1838.1,10,445,529,722,723,3547
15676.2,0.0160651,-0.00449317,0.00431072,-0.0103134,0.00431072,0.00301515,0.00732845,-0.0103134,0.00732845,0.00082696,-36403,2717.06,-6766.13,2717.06,-31559.3,4762.8,-6766.13,4762.8,-33202.3,10,562,838,841,842,3548
16701.5,0.0171844,0.0101199,0.000470754,-0.00157758,0.000470754,-0.00540816,-0.0122172,-0.00157758,-0.0122172,-0.00290541,50127.7,241.808,-1079.36,241.808,40181.8,-7921.24,-1079.36,-7921.24,41571.4,10,453,471,724,731,3549
35598.7,0.0366269,0.0136209,-0.0261787,-0.00140546,-0.0261787,-0.0108437,-0.0130002,-0.00140546,-0.0130002,0.000584979,50443.1,-17351.2,-2019.85,-17351.2,37490,-8620.96,-2019.85,-8620.96,42224.9,10,483,701,747,753,3550
31705.4,0.0325034,-0.00133319,-0.0253144,-0.00321596,-0.0253144,-0.00718827,-0.00844327,-0.00321596,-0.00844327,0.00930402,-28067.1,-16485.7,-2152.81,-16485.7,-31554.7,-5470.59,-2152.81,-5470.59,-21030.8,10,443,444,491,721,3551
21263.8,0.0218337,0.00276667,-0.01419,-0.00634059,-0.01419,-0.0101627,-0.00516195,-0.00634059,-0.00516195,0.0082437,5918.4,-9072.44,-4039.98,-9072.44,-3122.01,-3400.28,-4039.98,-3400.28,9161.97,10,486,487,751,756,3552
22542.3,0.0231364,-0.000319242,-0.0160229,-0.00240404,-0.0160229,-0.00903874,-0.00691231,-0.00240404,-0.00691231,0.0100353,-5055.63,-10473.3,-1649.72,-10473.3,-10175.2,-4506.59,-1649.72,-4506.59,1888.94,10,444,490,755,758,3553
22101,0.0225372,-0.000520583,0.00872402,-0.0100646,0.00872402,-0.00718278,0.0130153,-0.0100646,0.0130153,0.00446336,-129690,5585.43,-6778.31,5585.43,-133652,8586.35,-6778.31,8586.35,-126764,10,559,562,563,839,3554
24700.4,0.0253103,0.00148758,-0.0182236,-0.00537186,-0.0182236,-0.0093997,-0.00662965,-0.00537186,-0.00662965,0.00778059,-34569.3,-11761.7,-3421.47,-11761.7,-42299.2,-4342.37,-3421.47,-4342.37,-30779.5,10,443,487,491,756,3555
21596.5,0.0222097,0.00405633,-0.0164693,-0.00143496,-0.0164693,-0.00969998,-0.00376653,-0.00143496,-0.00376653,0.00744876,36526.2,-10631.7,-907.776,-10631.7,27387.6,-2434.2,-907.776,-2434.2,38622,10,443,720,721,756,3556
18993.3,0.0195537,0.0106018,0.0098342,0.00592073,0.0098342,-0.0132283,-0.000368449,0.00592073,-0.000368449,0.00490529,61677.2,6151.67,3807.47,6151.67,45866.9,-282.055,3807.47,-282.055,57773.7,10,579,832,858,860,3557
18328.1,0.018846,-0.00319298,-0.004429,0.0112055,-0.004429,-0.00318535,0.00896122,0.0112055,0.00896122,0.00788732,29176.9,-2697.81,7426.54,-2697.81,29477,5866.15,7426.54,5866.15,36059.1,10,527,778,791,792,3558
21403.5,0.0219251,0.00415072,-0.0164755,-0.00427918,-0.0164755,-0.00903867,-0.0034705,-0.00427918,-0.0034705,0.00431896,-38886.8,-10605.5,-2714.02,-10605.5,-48077.5,-2303.62,-2714.02,-2303.62,-39087.3,10,523,719,720,787,3559
17509.4,0.0179476,0.00479313,-0.0121619,0.00160778,-0.0121619,-0.00992576,-0.00439422,0.00160778,-0.00439422,0.00470419,-26325.4,-7840.57,1084.02,-7840.57,-36106.4,-2843.09,1084.02,-2843.09,-26458.6,10,441,718,752,896,3560
22156,0.0227168,0.00237637,-0.01628,-0.00317508,-0.01628,-0.0102785,-0.00497426,-0.00317508,-0.00497426,0.00794083,-22307.6,-10449.8,-2004.01,-10449.8,-31192.8,-3279.58,-2004.01,-3279.58,-19019.4,10,487,719,751,756,3561
25027.1,0.0256239,0.0163749,0.00896089,0.00312855,0.00896089,-0.0103674,-0.0138818,0.00312855,-0.0138818,-0.00661809,-41334.2,5905.07,2609.08,5905.07,-57354.1,-9053.01,2609.08,-9053.01,-57280.1,10,451,702,703,889,3562
22844.6,0.0234163,0.00444341,-0.0169908,-0.00458716,-0.0169908,-0.0101106,-0.00499286,-0.00458716,-0.00499286,0.00558605,-26365.8,-10909.9,-2915.12,-10909.9,-36487,-3289.03,-2915.12,-3289.03,-25946.8,10,442,487,719,756,3563
17035.5,0.017554,0.00119824,-0.00963812,-0.00791909,-0.00963812,-0.00631106,-0.00504797,-0.00791909,-0.00504797,0.00782464,73004.9,-6174.89,-5088.35,-6174.89,67821.5,-3330.16,-5088.35,-3330.16,77100.9,10,486,750,751,756,3564
26258.5,0.0269298,0.00333031,-0.0209362,-0.00342922,-0.0209362,-0.00942808,-0.00469999,-0.00342922,-0.00469999,0.00660117,-17080.2,-13526.8,-2177.2,-13526.8,-25912.5,-3078.25,-2177.2,-3078.25,-15216.5,10,442,443,720,756,3565
17470,0.0179532,0.00544685,0.0010429,-0.00170465,0.0010429,-0.0112926,-0.0116253,-0.00170465,-0.0116253,0.00695808,23518.4,638.555,-1129.67,638.555,12501.2,-7417.09,-1129.67,-7417.09,24648.7,10,609,612,880,881,3566
21009.6,0.0215589,0.00696408,0.0139141,0.00708095,0.0139141,-0.0111982,-0.00264342,0.00708095,-0.00264342,0.00467877,-3549.3,8824.23,4522.62,8824.23,-16067,-1770.94,4522.62,-1770.94,-5391.12,10,579,832,833,858,3567
25791.7,0.026453,0.00341016,0.0193636,0.00464218,0.0193636,-0.0103702,-0.00639288,0.00464218,-0.00639288,0.00747106,-15518.1,12458.1,2965.43,12458.1,-25169.2,-4189.54,2965.43,-4189.54,-13223,10,551,552,618,890,3568
22149.9,0.0227056,0.00458773,0.014369,0.00546019,0.014369,-0.0122428,-0.00602664,0.00546019,-0.00602664,0.00756175,-25074.3,9130.48,3473.54,9130.48,-36726.2,-3974.82,3473.54,-3974.82,-23477.2,10,613,832,884,890,3569
20050.6,0.0206528,0.00368531,0.0145281,0.000417189,0.0145281,-0.0103244,-0.00255451,0.000417189,-0.00255451,0.00929818,66969.5,9359.99,276.046,9359.99,57716.9,-1659.01,276.046,-1659.01,70498.2,10,552,833,834,890,3570
17298.9,0.0177763,0.0033756,0.00985234,0.00474098,0.00985234,-0.00984692,-0.00592006,0.00474098,-0.00592006,0.00753887,21165.6,6273.07,3012.87,6273.07,12231.8,-3869.85,3012.87,-3869.85,23711.6,10,550,613,832,884,3571
31879.4,0.0327892,0.00887777,-0.0110428,-0.0122846,-0.0110428,0.00513506,-0.0204734,-0.0122846,-0.0204734,-0.0112281,41684,-6988,-8456.91,-6988,40608.2,-12770.7,-8456.91,-12770.7,28296.9,10,465,466,483,748,3572
15921.7,0.0163196,0.00294607,0.00697633,0.00098072,0.00697633,-0.0120219,-0.00608639,0.00098072,-0.00608639,0.00854578,-28070.3,4419.11,544.554,4419.11,-38092,-3877.04,544.554,-3877.04,-24501.9,10,596,862,863,868,3573
8684.71,0.00892686,0.0027534,-0.00459601,0.00290157,-0.00459601,-0.00357063,-0.00433055,0.00290157,-0.00433055,0.00169298,26124.1,-2941.88,1929.76,-2941.88,21872.2,-2749.16,1929.76,-2749.16,25432,10,475,715,735,736,3574
29753.1,0.0304524,0.00660581,-0.00212585,-0.00475637,-0.00212585,-0.023078,-0.0158453,-0.00475637,-0.0158453,0.0160752,-54208.3,-2115.86,-3526.92,-2115.86,-73289.6,-10191,-3526.92,-10191,-47942.1,10,490,494,757,758,3575
15694.2,0.0160869,0.00294293,-0.0116462,-0.00115245,-0.0116462,-0.00628033,-0.00540085,-0.00115245,-0.00540085,0.00281253,-27506.7,-7526.92,-685.711,-7526.92,-33776.6,-3496.23,-685.711,-3496.23,-27678.5,10,470,729,730,736,3576
10031.5,0.0103161,0.000467144,-0.00629971,-0.00144126,-0.00629971,-0.0019508,-0.00571644,-0.00144126,-0.00571644,0.00268469,33764.3,-4075.93,-887.621,-4075.93,32048.2,-3696.4,-887.621,-3696.4,35193,10,464,716,730,736,3577
29459.9,0.0298686,0.0030618,-0.0094663,-0.0204756,-0.0094663,-0.0043858,-0.011863,-0.0204756,-0.011863,-0.00477474,-238802,-6087.84,-13737.9,-6087.84,-242971,-7435.34,-13737.9,-7435.34,-244295,10,466,484,748,749,3578
17162.3,0.0176159,0.00414576,-0.00923796,-0.00129542,-0.00923796,-0.0112222,-0.006812,-0.00129542,-0.006812,0.00745377,-310.527,-5918.77,-783.742,-5918.77,-10521.9,-4388.58,-783.742,-4388.58,1768.78,10,469,728,729,752,3579
10883.8,0.0111718,0.0034705,-0.00574185,0.000730257,-0.00574185,-0.00265188,-0.00709359,0.000730257,-0.00709359,-0.00070572,-132.732,-3704.93,531.141,-3704.93,-4287.25,-4586.41,531.141,-4586.41,-2826.92,10,479,713,714,741,3580
21456,0.0219528,0.00014813,-0.0132129,-0.00853959,-0.0132129,-0.00889302,-0.00683843,-0.00853959,-0.00683843,0.00746879,-64525.9,-8545.29,-5540.5,-8545.29,-70732.7,-4527.36,-5540.5,-4527.36,-59960.1,10,486,491,750,756,3581
14671.6,0.0150778,0.00426243,-0.00945841,-0.00105966,-0.00945841,-0.00726983,-0.0060502,-0.00105966,-0.0060502,0.00399197,23387.5,-6079.87,-633.856,-6079.87,15681.1,-3898.3,-633.856,-3898.3,23143.4,10,469,470,729,896,3582
12993,0.0132929,0.00252793,-0.00320703,-0.00160277,-0.00320703,-0.00498742,-0.0102147,-0.00160277,-0.0102147,0.000677607,-64298.9,-2064.24,-990.191,-2064.24,-69349.4,-6633.39,-990.191,-6633.39,-65425.6,10,461,482,713,740,3583
10283.8,0.0105832,0.00342824,-0.00459475,0.000932743,-0.00459475,-0.00194317,-0.00739566,0.000932743,-0.00739566,0.000160259,49682.1,-2959.65,651.792,-2959.65,46055.1,-4770.28,651.792,-4770.28,47603.4,10,462,475,479,741,3584
15998.6,0.0163518,0.00564106,-0.00459514,0.002802,-0.00459514,-0.00941964,-0.0105329,0.002802,-0.0105329,0.00153996,-81401.5,-2940.09,1885.18,-2940.09,-91415.4,-6786.94,1885.18,-6786.94,-83965.9,10,477,481,482,744,3585
11523.4,0.0118058,0.00348313,-0.00511575,0.00101712,-0.00511575,-0.00475782,-0.00775095,0.00101712,-0.00775095,0.000264375,-36974.4,-3297.27,719.044,-3297.27,-42511.8,-5003.83,719.044,-5003.83,-39028.9,10,474,475,479,741,3586
32802.1,0.0337245,0.0162044,-0.00624182,-0.0124493,-0.00624182,-0.0225503,-0.0153114,-0.0124493,-0.0153114,0.00896833,38505.5,-5004.45,-8733.22,-5004.45,14929.8,-10163,-8733.22,-10163,33449.2,10,488,489,700,753,3587
14300.1,0.0146898,0.00374906,-0.00791683,-0.00329068,-0.00791683,-0.0078603,-0.00623475,-0.00329068,-0.00623475,0.00482285,14835.9,-5074.29,-2059.01,-5074.29,7036.83,-4009.1,-2059.01,-4009.1,15485.3,10,468,469,728,735,3588
10274,0.0105933,0.00408319,-0.00426098,-0.000238679,-0.00426098,-0.0050754,-0.00623518,-0.000238679,-0.00623518,0.00378276,86825.7,-2729.8,-105.873,-2729.8,80765.7,-3965.52,-105.873,-3965.52,86701.9,10,461,478,479,740,3589
24203.9,0.0248123,0.0045733,0.0165063,0.00585023,0.0165063,-0.0115954,-0.00721726,0.00585023,-0.00721726,0.00711104,-24182.1,10550.3,3736.73,10550.3,-35402.6,-4755.18,3736.73,-4755.18,-22882.4,10,551,613,832,890,3590
17283.4,0.0177478,0.00810113,0.00509271,-0.00226192,0.00509271,-0.00403506,-0.012587,-0.00226192,-0.012587,-0.00342552,10498.6,3309.32,-1479.67,3309.32,2475.33,-8151.12,-1479.67,-8151.12,3068.08,10,591,607,610,875,3591
16078.8,0.0165205,0.0122076,0.000478481,-0.00152447,0.000478481,-0.0118886,-0.00754453,-0.00152447,-0.00754453,0.000608151,24390.1,25.9574,-1086.28,25.9574,8640.22,-4786.57,-1086.28,-4786.57,16973.6,10,602,823,869,874,3592
12557.1,0.0128765,0.00748437,0.00150117,0.00258476,0.00150117,-0.00933762,-0.00654428,0.00258476,-0.00654428,0.00142652,-16965.3,968.351,1665.7,968.351,-27993.2,-4185.19,1665.7,-4185.19,-20809.5,10,608,877,879,880,3593
17329.7,0.017807,0.00282164,-0.0104218,-0.00877832,-0.0104218,-0.00536786,-0.00524563,-0.00877832,-0.00524563,0.00358254,19788.6,-6715.42,-5656.1,-6715.42,14196.2,-3468.65,-5656.1,-3468.65,20075,10,473,727,733,734,3594
19020.2,0.0195311,0.00976751,0.0073133,0.00602299,0.0073133,-0.00714426,-0.0110191,0.00602299,-0.0110191,-0.001888,11203.1,4762.89,3998.65,4762.89,423.697,-7156.65,3998.65,-7156.65,3589.06,10,453,704,705,873,3595
15289.8,0.0157197,0.0104268,0.00520426,-0.00328941,0.00520426,-0.00882641,-0.00737061,-0.00328941,-0.00737061,-0.000336182,35449.5,3297.12,-2165.32,3297.12,22758.2,-4687.71,-2165.32,-4687.71,28494.1,10,607,608,876,879,3596
13898.6,0.0142645,0.00749336,0.00402675,-0.00299421,0.00402675,-0.00771735,-0.008337,-0.00299421,-0.008337,0.000378218,-54.7511,2571.82,-1980.61,2571.82,-10112.7,-5337.07,-1980.61,-5337.07,-4599.34,10,607,608,610,879,3597
11277.6,0.0115584,0.00345607,-0.00207118,0.00251686,-0.00207118,-0.00571471,-0.00814193,0.00251686,-0.00814193,0.0014723,-29530.7,-1294.38,1685.23,-1294.38,-35664.8,-5223.77,1685.23,-5223.77,-30712.7,10,482,712,713,744,3598
17638.6,0.0181381,0.00716141,-0.00570346,0.00224418,-0.00570346,-0.00909233,-0.0116906,0.00224418,-0.0116906,0.00343682,36989.4,-3656.73,1509.56,-3656.73,26268.1,-7494.41,1509.56,-7494.41,34704.5,10,476,477,481,743,3599
11431.6,0.0117431,0.00504017,-0.00106148,0.00204875,-0.00106148,-0.00596477,-0.00815562,0.00204875,-0.00815562,0.00151994,15689.4,-626.113,1373.59,-626.113,8392.89,-5219.66,1373.59,-5219.66,13518,10,482,712,744,746,3600
15285.6,0.0156654,0.0043559,-0.00509757,0.00143356,-0.00509757,-0.00918695,-0.00977979,0.00143356,-0.00977979,0.00418398,-29940.7,-3272.71,994.777,-3272.71,-38941.6,-6263.02,994.777,-6263.02,-29956.5,10,478,739,740,744,3601
29352.8,0.0300631,-0.000214559,0.0230688,0.0060334,0.0230688,-0.00818994,-0.0063662,0.0060334,-0.0063662,0.00838812,-47614.5,15142.2,4533.67,15142.2,-48140,-4034.71,4533.67,-4034.71,-39938.6,10,620,803,893,895,3602
36662.2,0.0376502,0.0270452,-0.00296278,0.0112012,-0.00296278,-0.0313869,-0.00701357,0.0112012,-0.00701357,0.00668421,23877.7,-597.63,7462.28,-597.63,-14024.9,-4757.8,7462.28,-4757.8,10460.5,10,621,623,624,803,3603
21341.1,0.0218108,0.0141672,0.00354027,0.00517218,0.00354027,-0.0200553,-0.00299443,0.00517218,-0.00299443,0.00392659,-77301,2771.56,3504.07,2771.56,-99249.2,-2274.89,3504.07,-2274.89,-83946,10,621,624,803,804,3604
6379.18,0.00655539,0.000877047,-0.00380347,0.00398938,-0.00380347,-0.000924969,0.000923769,0.00398938,0.000923769,0.000717238,20037.7,-2460.84,2585.79,-2460.84,18812.8,621.094,2585.79,621.094,19855.9,10,516,520,521,784,3605
8912.21,0.00912005,-0.00189622,-0.00707361,0.00323582,-0.00707361,-0.00047035,0.000574675,0.00323582,0.000574675,0.000579994,-62679.5,-4610,2117.03,-4610,-61881.1,414.559,2117.03,414.559,-61170.3,10,510,520,521,784,3606
4479.77,0.00461744,0.00286236,-0.00108984,0.00333089,-0.00108984,0.000412401,0.000433795,0.00333089,0.000433795,-0.000823874,79567.2,-704.363,2139.98,-704.363,77957.1,285.319,2139.98,285.319,77133.4,10,520,760,761,784,3607
5510.37,0.00565056,-3.21873e-07,-0.00325716,0.0036048,-0.00325716,0.000180121,0.000263028,0.0036048,0.000263028,-0.00080282,-21552.6,-2118.31,2340.05,-2118.31,-21480,186.566,2340.05,186.566,-22121.8,10,511,760,775,784,3608
4527.13,0.00464806,0,0,0.00402317,0,0,0.000117241,0.00402317,0.000117241,0.000105447,2361.98,0.612545,2612.52,0.612545,2340.97,76.1327,2612.52,76.1327,2388.39,10,496,520,760,761,3609
3975.19,0.00407944,0,0.00352904,0,0.00352904,-0.000187162,0.000124733,0,0.000124733,0,-6808.71,2292.09,0.57192,2292.09,-6962.68,81.0132,0.57192,81.0132,-6824.87,10,544,545,576,830,3610
7520.74,0.00772481,-0.00229998,0.00365838,-0.00421387,0.00365838,0.00395637,0.00154667,-0.00421387,0.00154667,-0.00124769,8775.39,2370.8,-2734.82,2370.8,12796.6,1027.95,-2734.82,1027.95,9384.71,10,572,813,851,855,3611
19073.5,0.0195363,0.0021937,0.0028896,-0.011789,0.0028896,-0.00683857,-0.0102863,-0.011789,-0.0102863,0.00385427,-42223.8,1830.21,-7824.83,1830.21,-48246.2,-6553.31,-7824.83,-6553.31,-41489.9,10,465,466,725,732,3612
8155.33,0.00838416,0.00219722,-0.00646054,0.00265508,-0.00646054,-0.000735548,0.00113116,0.00265508,0.00113116,-0.000497359,29091.5,-4168.58,1703.98,-4168.58,27046.3,779.896,1703.98,779.896,27228.9,10,510,521,784,785,3613
6353.04,0.00653762,-0.000258976,-0.00260211,0.00408822,-0.00260211,0.00340454,0.00133059,0.00408822,0.00133059,-0.00164205,46099.7,-1676.07,2639.64,-1676.07,48441.3,875.454,2639.64,875.454,45121.4,10,516,761,762,780,3614
5545.14,0.00568993,-0.000304312,0.00336346,-0.00357926,0.00336346,0.000380345,2.85864e-05,-0.00357926,2.85864e-05,-0.000306059,-9138.09,2185.87,-2325.93,2185.87,-8734.17,32.0245,-2325.93,32.0245,-9179.51,10,542,576,855,897,3615
7159.64,0.00731412,-0.00222976,0.00239761,-0.00575116,0.00239761,-0.000421929,0.000244147,-0.00575116,0.000244147,-0.000201766,-95825.7,1565.09,-3760.61,1565.09,-94703.1,176.664,-3760.61,176.664,-94596.2,10,541,572,576,813,3616
19468,0.02009,0.011443,-0.00478742,-0.00594186,-0.00478742,-0.0146399,-0.00708087,-0.00594186,-0.00708087,0.00693295,107461,-3440.02,-4054.42,-3440.02,91218.6,-4810.69,-4054.42,-4810.69,104526,10,488,492,700,807,3617
36632.4,0.037444,0.017396,-0.0032548,-0.00954569,-0.0032548,-0.0334986,-0.0107236,-0.00954569,-0.0107236,0.0156511,-72792,-3507.56,-6632.09,-3507.56,-105175,-7443.69,-6632.09,-7443.69,-74139.2,10,488,489,493,700,3618
32267.3,0.033451,0.00158432,-0.0189065,0.00106058,-0.0189065,-0.0102251,-0.0174723,0.00106058,-0.0174723,0.0162102,187589,-12395,-537.263,-12395,184026,-11711.9,-537.263,-11711.9,198392,10,489,493,700,757,3619
28831.9,0.0295351,0.0091254,-0.0200618,-0.00222159,-0.0200618,-0.0105552,-0.0121825,-0.00222159,-0.0121825,0.00146578,-36678.4,-13404,-2324.51,-13404,-46843.1,-8133.01,-2324.51,-8133.01,-41388.8,10,488,700,701,753,3620
8710.52,0.00894185,0,0,0.00759782,0,0,0.00149571,0.00759782,0.00149571,0.000101336,-548.639,14.7602,4934.09,14.7602,-620.711,971.328,4934.09,971.328,-635.691,10,499,512,762,763,3621
18889.7,0.019413,-0.00367204,0.000265555,0.0136953,0.000265555,-0.00580066,-0.00382437,0.0136953,-0.00382437,0.0106836,18612.3,150.826,9029.98,150.826,17081.6,-2317.8,9029.98,-2317.8,27555.5,10,615,886,887,891,3622
14649.3,0.01505,0.00293188,-0.00636616,-0.00589841,-0.00636616,-0.00933273,-0.00457809,-0.00589841,-0.00457809,0.00719097,16358.9,-4028.66,-3779.16,-4028.66,8154.19,-2997.48,-3779.16,-2997.48,19010.9,10,468,727,750,751,3623
36560.5,0.0373026,0.0241916,0.0127431,-0.00116639,0.0127431,-0.0310315,-0.00960441,-0.00116639,-0.00960441,0.00527879,-102398,6246.19,-1143.33,6246.19,-139828,-6735.75,-1143.33,-6735.75,-115742,10,492,493,699,700,3624
15162.6,0.0155842,0.0064736,-0.00531955,0.000875835,-0.00531955,-0.00887504,-0.00932139,0.000875835,-0.00932139,0.00347984,27013.4,-3417.26,620.521,-3417.26,16887.7,-5959.59,620.521,-5959.59,25155,10,477,478,482,744,3625
10529.6,0.0107613,-0.00388245,-0.00615754,0.00520473,-0.00615754,0.000836077,0.00385561,0.00520473,0.00385561,0.000539414,-88802.6,-3984.76,3430.09,-3984.76,-85776.8,2553.09,3430.09,2553.09,-86057,10,516,517,780,785,3626
24000.8,0.0245752,-0.00116788,-0.00788623,0.00910086,-0.00788623,-0.0106729,0.0136984,0.00910086,0.0136984,0.0112002,-51172.8,-5111.29,6365.62,-5111.29,-56357.7,9091.64,6365.62,9091.64,-43374.7,10,528,529,779,792,3627
13926.9,0.014306,0.00124331,0.00450605,-0.00612737,0.00450605,0.00307079,0.00914509,-0.00612737,0.00914509,-0.00363428,12770.4,2842.48,-3915.52,2842.48,13809.8,5988.31,-3915.52,5988.31,9374.03,10,557,558,561,837,3628
11961.4,0.0122409,0.00319062,0.00449442,-0.00705283,0.00449442,-0.00495044,0.00505453,-0.00705283,0.00505453,9.86557e-05,-58629.2,2906.94,-4613.78,2906.94,-63900.3,3306.79,-4613.78,3306.79,-60795.1,10,538,561,565,816,3629
18366,0.0188194,0.00745315,0.00857218,-0.0041361,0.00857218,-0.0027485,0.0113844,-0.0041361,0.0113844,-0.00527946,-30976.2,5500.94,-2591.95,5500.94,-37637.9,7476.87,-2591.95,7476.87,-39344.8,10,561,565,816,841,3630
11241.5,0.0115244,0.00305266,-0.00342336,0.00738294,-0.00342336,-0.00388154,0.00460836,0.00738294,0.00460836,0.000195262,-24794.3,-2197.52,4810.62,-2197.52,-29311.5,3005.73,4810.62,3005.73,-26826.3,10,500,526,530,764,3631
24651.1,0.025317,0.0108644,0.0029115,-0.00650964,0.0029115,-0.000126307,-0.0180497,-0.00650964,-0.0180497,-0.00951769,14905.3,1952.26,-4227.45,1952.26,8051.39,-11574,-4227.45,-11574,1205.99,10,453,465,471,724,3632
12441.1,0.0127566,0.00322747,-0.00507079,0.00534598,-0.00507079,0.00200633,0.006655,0.00534598,0.006655,-0.00570668,-20949.3,-3244.28,3358.31,-3244.28,-21927,4410.02,3358.31,4410.02,-26943.5,10,512,526,763,776,3633
8277.32,0.00849706,0,0,-0.00726635,0,0,0.00116099,-0.00726635,0.00116099,8.45081e-05,-719.531,-10.9573,-4718.84,-10.9573,-786.36,753.956,-4718.84,753.956,-803.558,10,539,540,557,814,3634
21314.3,0.0219074,-0.00242263,0.00666091,-0.0145062,0.00666091,-0.00476052,0.00734894,-0.0145062,0.00734894,0.00862894,21648.5,4164.07,-9603,4164.07,20284.7,4794.07,-9603,4794.07,28401.9,10,563,839,840,843,3635
8277.32,0.00849706,0,0,-0.00726635,0,0,0.00116099,-0.00726635,0.00116099,8.45081e-05,-719.531,-10.9573,-4718.84,-10.9573,-786.36,753.956,-4718.84,753.956,-803.558,10,539,557,814,815,3636
16181.4,0.0166503,0.00846727,0.00616686,-0.00733712,0.00616686,-0.00286455,0.00833506,-0.00733712,0.00833506,-0.00379054,50058.2,3997.92,-4903.86,3997.92,43125.4,5320.58,-4903.86,5320.58,42034.3,10,569,817,845,848,3637
25880.5,0.0264855,0.00992624,0.00908771,-0.00382105,0.00908771,-0.0225916,0.00736703,-0.00382105,0.00736703,0.0118578,-54892.8,6982.64,-2869.62,6982.64,-74526.6,5024.16,-2869.62,5024.16,-53134.6,10,564,835,836,844,3638
29006.7,0.0296631,0.0214909,0.00541506,0.00656669,0.00541506,-0.0132595,-0.0150442,0.00656669,-0.0150442,-0.00921691,-60951.5,3746.95,4473.46,3746.95,-83098.2,-9787.5,4473.46,-9787.5,-81189.5,10,452,453,600,867,3639
20224.8,0.0207982,0.00817258,0.00743916,-0.00803825,0.00743916,-0.00121856,0.012527,-0.00803825,0.012527,-0.00526857,38083.3,4821.12,-5379.48,4821.12,32449.3,8015.66,-5379.48,8015.66,29271.5,10,565,569,817,845,3640
7447.91,0.00764825,0,0,0.00656738,0,0,0.000846857,0.00656738,0.000846857,0.000268847,5859.16,7.22127,4264.34,7.22127,5804.09,549.883,4264.34,549.883,5920.76,10,497,516,761,762,3641
0,0,0,0,0,0,0,0,0,0,0,0,0,0,0,0,0,0,0,0,10,495,496,511,760,3642
13102.7,0.0135114,0.00483045,0.00482121,-0.00561932,0.00482121,0.00380716,0.0069669,-0.00561932,0.0069669,-0.00567595,89451.7,3070.54,-3501.22,3070.54,88598.7,4596.83,-3501.22,4596.83,82492,10,561,815,816,841,3643
19391.8,0.0199507,-0.00575528,-0.00484665,0.0122661,-0.00484665,0.00299858,0.00965659,0.0122661,0.00965659,0.00466381,38190.4,-3015.18,8034.83,-3015.18,43917.1,6257.46,8034.83,6257.46,44663.1,10,513,514,527,777,3644
17004.6,0.0175296,0.00813771,-0.00660391,0.0053161,-0.00660391,0.00204444,0.0099415,0.0053161,0.0099415,-0.00721476,85707.7,-4161.01,3195.94,-4161.01,81462.1,6566.01,3195.94,6566.01,75602.7,10,526,763,764,790,3645
22119.9,0.0226052,0.00769698,-0.00801771,0.00807685,-0.00801771,-0.00390346,0.0141659,0.00807685,0.0141659,-0.0057346,-82766.8,-5228.93,5419.38,-5228.93,-89904.5,9173.58,5419.38,9173.58,-91672.6,10,501,530,534,765,3646
14002.6,0.0143322,0.00155879,-0.00181602,0.00663265,-0.00181602,-0.000901278,0.0101604,0.00663265,0.0101604,-0.00213371,-56420,-1105.55,4282.85,-1105.55,-58092.3,6637.05,4282.85,6637.05,-59025.4,10,530,764,765,794,3647
25480.3,0.025986,-0.00326736,-0.011801,0.011233,-0.011801,-0.00914029,0.0122605,0.011233,0.0122605,0.00948711,-129435,-7541.35,7587.81,-7541.35,-132914,8239.13,7587.81,8239.13,-121521,10,514,527,528,778,3648
21563.1,0.0221685,-0.0106509,-0.00329025,0.0150715,-0.00329025,0.00257002,0.00490434,0.0150715,0.00490434,0.00969141,21006,-1802.29,9985.5,-1802.29,29622,3082.77,9985.5,3082.77,33793.5,10,528,778,779,792,3649
31750.6,0.0326823,0.0170317,-0.0176242,0.00386388,-0.0176242,-0.0063307,0.0168595,0.00386388,0.0168595,-0.00747873,62029.7,-11532.7,2681.64,-11532.7,47972.5,10978.7,2681.64,10978.7,46185.4,10,527,530,531,794,3650
32302.3,0.0330592,-0.00315292,0.0237458,0.00628436,0.0237458,-0.0121111,0.00492796,0.00628436,0.00492796,0.0150826,-62018.8,15501,3929.78,15501,-67451.6,3407.79,3929.78,3407.79,-49926.6,10,552,553,560,834,3651
19990.6,0.020469,0.01022,0.00378615,-0.000186892,0.00378615,-0.0167224,0.00960996,-0.000186892,0.00960996,0.0055877,-43687.4,3251.84,-474.368,3251.84,-60381.7,6577.91,-474.368,6577.91,-46706.2,10,564,836,844,847,3652
20239.5,0.0207562,-0.00525271,0.000704712,-0.0062122,0.000704712,-0.00557604,0.013994,-0.0062122,0.013994,0.0108492,-23478.4,324.875,-4437.77,324.875,-23328.5,9143.09,-4437.77,9143.09,-13431.8,10,564,840,843,844,3653
22908.1,0.0236257,0.0126262,0.0029123,-0.00715669,0.0029123,-0.0200467,0.0044334,-0.00715669,0.0044334,0.0110271,96581.6,2469.92,-4835.81,2469.92,76050.9,3503.92,-4835.81,3503.92,95446.5,10,567,843,846,847,3654
31714.6,0.0324181,0.0114382,-0.00237542,-0.0106491,-0.00237542,-0.0296444,0.00403421,-0.0106491,0.00403421,0.0172181,-75691.4,-679.002,-7047.36,-679.002,-102529,3351.13,-7047.36,3351.13,-72330.3,10,564,567,843,847,3655
13698.1,0.0141174,-0.00557967,-0.00246187,0.00874897,-0.00246187,-0.00139089,0.00229883,0.00874897,0.00229883,0.00961421,71621.3,-1415.39,5778.44,-1415.39,74534.2,1355.21,5778.44,1355.21,81419.5,10,529,722,779,793,3656
29719.6,0.0308321,0.0155414,0.0042988,-0.0185642,0.0042988,-0.00708917,0.0146187,-0.0185642,0.0146187,-0.000707917,212150,2891.76,-12303.8,2891.76,198488,9129.46,-12303.8,9129.46,201579,10,566,567,570,846,3657
26761.1,0.0273318,0.0100398,0.00748809,-0.00949814,0.00748809,-0.0233685,0.00514049,-0.00949814,0.00514049,0.0113797,-93330.4,5515.45,-6556.74,5515.45,-113955,3968.77,-6556.74,3968.77,-92256.7,10,567,846,847,850,3658
21766.4,0.0222023,0.00983635,0.000469029,-0.00919425,0.000469029,-0.0120536,0.0128507,-0.00919425,0.0128507,-0.000881745,-117470,414.923,-6171.48,414.923,-131342,8454.61,-6171.48,8454.61,-124898,10,566,569,845,849,3659
10541.8,0.0108026,-0.00117999,-0.00165166,-0.00713989,-0.00165166,-0.000713821,0.00570201,-0.00713989,0.00570201,0.00098933,-35437.9,-1134.17,-4650.06,-1134.17,-35143,3703.94,-4650.06,3703.94,-34204.8,10,565,816,817,845,3660
21316.1,0.0219377,0.00773511,-0.00820709,0.0101596,-0.00820709,-0.0130004,0.00697877,0.0101596,0.00697877,0.00749336,52959.3,-5460.6,6794.55,-5460.6,40122.7,4657.39,6794.55,4657.39,52686.4,10,527,531,791,792,3661
38043.7,0.0388449,0.0139794,-0.00406067,0.0162633,-0.00406067,-0.0328116,0.00742516,0.0162633,0.00742516,0.0178729,-95719.1,-3188.09,10964,-3188.09,-125252,6125.98,10964,6125.98,-93472.5,10,532,535,795,799,3662
25699.8,0.0262801,0.00772123,-0.00710133,0.0104503,-0.00710133,-0.0214988,0.00446177,0.0104503,0.00446177,0.0124748,-71132.2,-5169.38,7163.33,-5169.38,-88990.8,3517.42,7163.33,3517.42,-67811.7,10,532,795,796,799,3663
16934.6,0.017447,0.00791425,-0.00400152,0.0070132,-0.00400152,-0.00850511,0.0095732,0.0070132,0.0095732,0.00319254,73704.3,-2717.07,4741.92,-2717.07,63617.5,6258.31,4741.92,6258.31,70496,10,531,794,795,798,3664
343.515,0.000352651,0,0,-0.000166577,0,0,0.000255962,-0.000166577,0.000255962,4.8268e-06,149.158,-0.055377,-108.175,-0.055377,149.207,166.221,-108.175,166.221,152.135,10,542,543,812,897,3665
27978.5,0.0285367,0.00460997,0.0162515,-0.00605749,0.0162515,-0.0178997,0.00914167,-0.00605749,0.00914167,0.0106508,-122151,10444.1,-4030.43,10444.1,-137116,6229.81,-4030.43,6229.81,-118569,10,559,560,575,854,3666
19409.7,0.0199235,0.00815179,-0.0112359,0.00619908,-0.0112359,-0.011165,0.00558926,0.00619908,0.00558926,0.00354632,3237.29,-7081.77,3999.38,-7081.77,-9687.85,3799.41,3999.38,3799.41,-111.708,10,518,781,782,786,3667
26097.7,0.0268543,0.00771159,0.0133362,-0.0144465,0.0133362,-0.00843939,0.00920907,-0.0144465,0.00920907,0.00322267,48890.7,8620.64,-10116.1,8620.64,40853.3,5782.74,-10116.1,5782.74,46411,10,567,571,847,850,3668
14149,0.0145513,0.00806585,0.00880534,-0.00228709,0.00880534,-0.00849429,0.00246862,-0.00228709,0.00246862,0.00182564,39978,5555.04,-1467.45,5555.04,28953.7,1668.87,-1467.45,1668.87,35750.7,10,578,857,858,859,3669
34268.5,0.0351939,0.00664645,0.0199919,-0.021553,0.0199919,0.0030578,0.00313524,-0.021553,0.00313524,-0.00760201,9669.02,12443.1,-14667.1,12443.1,11222.4,617.675,-14667.1,617.675,2602.31,10,564,568,836,847,3670
20438.5,0.0210708,-0.000520288,0.0088176,-0.0109498,0.0088176,-0.0062397,0.00823236,-0.0109498,0.00823236,0.00996757,81034.9,5620.63,-7252.69,5620.63,77571.3,5401.4,-7252.69,5401.4,87587.4,10,559,560,563,839,3671
28815.3,0.0296962,0.0176001,-0.0042636,0.0126503,-0.0042636,-0.0220496,0.00739241,0.0126503,0.00739241,0.00809785,85580.8,-3126.2,8546.48,-3126.2,60985.8,5657.47,8546.48,5657.47,78954.9,10,505,535,536,799,3672
24042.6,0.0248772,0.00919299,-0.00838668,0.0169461,-0.00838668,-0.00585921,0.00706135,0.0169461,0.00706135,0.00233109,157184,-5266.96,11468.2,-5266.96,149198,4178.13,11468.2,4178.13,152950,10,532,533,536,796,3673
28258.9,0.0292572,0.0223832,0.00523527,0.0101509,0.00523527,-0.0152484,-0.0122995,0.0101509,-0.0122995,-0.000754477,177524,3525.13,6741.36,3525.13,153825,-8025.41,6741.36,-8025.41,162438,10,452,600,867,889,3674
28655.5,0.0297084,0.009607,-0.0070322,0.0128139,-0.0070322,-0.0142777,0.0154249,0.0128139,0.0154249,0.0119211,195476,-4852.4,8713.35,-4852.4,181207,9980.37,8713.35,9980.37,196780,10,528,529,532,792,3675
23385.9,0.0238906,-0.00615133,-0.0132814,0.0103588,-0.0132814,-0.00784916,0.00491045,0.0103588,0.00491045,0.0119369,-98434.1,-8549.18,6995.69,-8549.18,-99427.6,3423.73,6995.69,3423.73,-86893,10,514,515,778,783,3676
33794.3,0.0347142,0.0227388,0.00315385,0.0111681,0.00315385,-0.00308339,-0.0188249,0.0111681,-0.0188249,-0.0174519,26166.4,1956.12,7456.6,1956.12,10395.7,-11749.2,7456.6,-11749.2,-774.334,10,452,600,617,889,3677
21532.6,0.0221077,0.00317965,-0.0149717,-0.00520585,-0.0149717,-0.0116098,-0.000523556,-0.00520585,-0.000523556,0.00924084,4235.49,-9678.85,-3356.23,-9678.85,-5576.18,-328.52,-3356.23,-328.52,8064.31,10,519,720,721,783,3678
13780.9,0.0141315,0.00219082,-0.00853451,-0.00153903,-0.00853451,-0.00772763,-0.00538266,-0.00153903,-0.00538266,0.00516923,-20065.3,-5482.42,-930.462,-5482.42,-26789.7,-3460.12,-930.462,-3460.12,-18201.1,10,475,729,735,736,3679
18819.7,0.0193159,0.00392168,0.0116913,0.0028426,0.0116913,-0.0119744,-0.00443332,0.0028426,-0.00443332,0.00849185,-1408.58,7410.29,1745.96,7410.29,-12320.7,-2823.72,1745.96,-2823.72,1325.05,10,596,862,884,885,3680
19559,0.0200638,0.00431901,0.0125619,0.00343665,0.0125619,-0.0118251,-0.0048699,0.00343665,-0.0048699,0.00766158,-11723.3,7990.33,2132.14,7990.33,-22812,-3116.81,2132.14,-3116.81,-9783.12,10,596,613,884,885,3681
15221.1,0.0155913,0.00741417,0.00644338,0.00157787,0.00644338,-0.0108814,-0.00697371,0.00157787,-0.00697371,0.00250702,-37938.1,4143.44,966.635,4143.44,-50009.1,-4464.19,966.635,-4464.19,-41091.4,10,603,607,871,875,3682
27128.5,0.0278966,0.00342036,0.019286,0.00498067,0.019286,-0.0125006,-0.00633698,0.00498067,-0.00633698,0.0112755,34690.2,12354.8,3159.98,12354.8,23655.2,-4136.14,3159.98,-4136.14,39440.3,10,613,614,618,890,3683
20348.9,0.0208788,0.00126675,0.0110916,0.00750416,0.0110916,-0.0114316,-0.00512998,0.00750416,-0.00512998,0.0105039,-9560.18,7146.62,4871.49,7146.62,-17986.3,-3388.7,4871.49,-3388.7,-3675.58,10,614,618,890,891,3684
18843.3,0.0193671,0.00732907,0.00451623,0.0104998,0.00451623,-0.01133,-0.00678386,0.0104998,-0.00678386,0.00526779,27300.3,2875.77,6848.04,2875.77,15260.8,-4502.72,6848.04,-4502.72,25757.2,10,599,865,866,887,3685
19971.9,0.0205781,0.00403381,0.00599873,0.00588654,0.00599873,-0.0133711,-0.00875594,0.00588654,-0.00875594,0.0121739,72697.4,4337.96,4127.31,4337.96,62272.2,-5626.8,4127.31,-5626.8,78200.4,10,619,892,894,895,3686
16148.2,0.0165854,-0.0050834,-0.00498181,0.0088293,-0.00498181,-0.00569425,-0.0029524,0.0088293,-0.0029524,0.0114683,5932.01,-3232.37,5839.57,-3232.37,5056.14,-1729.05,5839.57,-1729.05,16337.3,10,619,891,892,894,3687
36276.2,0.0370024,0.0235496,-0.0167082,-0.00140455,-0.0167082,-0.028446,-0.00771282,-0.00140455,-0.00771282,0.00313062,-107786,-9006.38,-604.426,-9006.38,-143693,-5579.25,-604.426,-5579.25,-122395,10,623,624,802,803,3688
50412.5,0.0509604,0.0272286,-0.00763246,0.00231669,-0.00763246,-0.0514123,0.00397341,0.00231669,0.00397341,0.0189992,-280479,-4614.51,1429.55,-4614.51,-332590,1648.94,1429.55,1648.94,-285880,10,449,450,624,808,3689
36303.7,0.0369053,0.0158762,0.0129043,0.00894981,0.0129043,-0.0241921,-0.0186623,0.00894981,-0.0186623,0.00454289,-179650,8959.48,6614.23,8959.48,-203787,-12815.1,6614.23,-12815.1,-187682,10,617,621,804,893,3690
44129.9,0.0448319,-0.00687713,0.0323717,0.00690027,0.0323717,-0.00989748,-0.0157537,0.00690027,-0.0157537,0.0136186,-210241,21010.9,5737.78,21010.9,-205230,-10215,5737.78,-10215,-193863,10,620,622,623,895,3691
19313.6,0.0198507,0.00482986,-0.0119224,-0.00360411,-0.0119224,-0.0112384,-0.0060069,-0.00360411,-0.0060069,0.00771917,26107.8,-7586.53,-2261.36,-7586.53,15223.8,-3893.67,-2261.36,-3893.67,27784.8,10,468,487,728,751,3692
23838.1,0.0244282,-0.00158344,-0.00506754,-0.0149254,-0.00506754,-0.00723662,-0.0115894,-0.0149254,-0.0115894,0.00864411,-35631.9,-3274.87,-9959.69,-3274.87,-39188.2,-7373.94,-9959.69,-7373.94,-29293.1,10,485,490,754,755,3693
28522.3,0.0294391,0.0107659,-0.00991047,-0.00829456,-0.00991047,-0.0142297,-0.0171768,-0.00829456,-0.0171768,0.00802606,110099,-7082.08,-5917.71,-7082.08,95397.9,-10940.7,-5917.71,-10940.7,108816,10,490,754,757,758,3694
26878.5,0.0275959,0.0132589,0.00132669,-0.00630643,0.00132669,-0.00507546,-0.0201203,-0.00630643,-0.0201203,-0.00696569,10310.2,905.329,-4125.44,905.329,-1139.99,-12990.6,-4125.44,-12990.6,-3436.15,10,452,465,483,724,3695
37949.7,0.0388851,0.0159897,-0.0167168,-0.00358329,-0.0167168,0.0102052,0.0186563,-0.00358329,0.0186563,-0.0250596,-26874.4,-11043.3,-1303.08,-11043.3,-28170.4,10047.6,-1303.08,10047.6,-55182.8,10,504,505,535,768,3696
24904.6,0.0256453,0.00817939,-0.0128836,0.0137768,-0.0128836,-0.00980685,0.0068798,0.0137768,0.0068798,0.00445865,63224.5,-8404.67,9602.7,-8404.67,53855.9,4385.14,9602.7,4385.14,61399.1,10,532,536,796,799,3697
31950.6,0.0327723,0.00864889,-0.0117458,0.0204577,-0.0117458,-0.0134716,0.010174,0.0204577,0.010174,0.00593109,-11820.3,-7458.69,14111,-7458.69,-23841.4,6617.31,14111,6617.31,-13727,10,533,536,770,796,3698
32469.4,0.0331555,0.0218806,-0.00205948,-0.0103702,-0.00205948,-0.0279015,-0.00862434,-0.0103702,-0.00862434,0.00448716,-88937.1,-2498.86,-6778.75,-2498.86,-121731,-4509.08,-6778.75,-4509.08,-99848.8,10,506,536,769,770,3699
50181.4,0.0513701,0.0287873,-0.00972563,0.000324867,-0.00972563,-0.0461286,-0.0145733,0.000324867,-0.0145733,0.0197366,-36912,-6954.12,521.329,-6954.12,-86364.5,-6763.36,521.329,-6763.36,-41616.1,10,505,506,536,769,3700
35918.6,0.036739,0.0147017,0.0136636,0.00185208,0.0136636,0.0102052,0.0186563,0.00185208,0.0186563,-0.0250596,-61731.7,8978.92,300.829,8978.92,-62157.2,10048.7,300.829,10048.7,-89238.3,10,504,505,570,768,3701
35292.6,0.036329,0.0115168,0.0136781,-0.0126054,0.0136781,-0.027621,-0.00196174,-0.0126054,-0.00196174,0.0197184,58772.7,8951.97,-8887.58,8951.97,34280.5,869.561,-8887.58,869.561,64303.4,10,505,571,769,850,3702
23592.7,0.0240746,0.00779733,-0.0176964,-0.00451551,-0.0176964,-0.00133194,0.00535226,-0.00451551,0.00535226,-0.00921549,-111659,-11896.3,-1670.76,-11896.3,-116088,2912.65,-1670.76,2912.65,-123012,10,505,768,769,799,3703
20898,0.021548,0.0117732,0.00354644,-0.00284491,0.00354644,0.00742573,0.0103336,-0.00284491,0.0103336,-0.0158598,92069.6,2252.06,-2050.23,2252.06,89766.3,6030.68,-2050.23,6030.68,73718.7,10,504,534,535,798,3704
35444.1,0.0367689,0.025567,0.000902323,0.000990511,0.000902323,-0.0312983,-0.0103933,0.000990511,-0.0103933,0.0140811,217573,1671.98,784.224,1671.98,180699,-5539.03,784.224,-5539.03,210723,10,506,556,571,800,3705
35713.2,0.0367069,0.0201475,0.00664114,-0.00770558,0.00664114,-0.0316193,-0.0101995,-0.00770558,-0.0101995,0.0142456,35435.6,5224.29,-4988.31,5224.29,2111.71,-5686.32,-4988.31,-5686.32,32522.8,10,556,568,571,800,3706
30337.9,0.0309807,0.00729079,0.0158384,-0.0151095,0.0158384,-0.0164801,0.00712826,-0.0151095,0.00712826,0.00748316,-98360,10440.1,-10702,10440.1,-111248,4978.98,-10702,4978.98,-97673.1,10,571,800,847,850,3707
25344.2,0.0262302,0.00893858,0.00784071,-0.0182154,0.00784071,-0.00278324,0.00920459,-0.0182154,0.00920459,-0.000239413,161661,4736.22,-12322,4736.22,155832,5309.11,-12322,5309.11,155665,10,567,568,571,847,3708
32837.3,0.0335563,0.0225369,0.00370156,0.0101655,0.00370156,-0.0279753,-0.00852893,0.0101655,-0.00852893,0.00439477,-74090.9,3483.54,6567.89,3483.54,-107263,-4475.2,6567.89,-4475.2,-85470.6,10,506,571,769,800,3709
23787.6,0.0242568,0.00740034,0.018498,0.00117937,0.018498,-0.00133194,0.00535226,0.00117937,0.00535226,-0.00921549,-125210,12185.3,-522.757,12185.3,-129369,2905.14,-522.757,2905.14,-136306,10,505,768,769,850,3710
19324.8,0.0199317,0.0113795,-0.00521804,0.00221099,-0.00521804,0.00654064,0.00873995,0.00221099,0.00873995,-0.014509,97516.5,-3330.12,1664.21,-3330.12,94759.2,5053.39,1664.21,5053.39,80340.4,10,504,569,570,849,3711
24794.5,0.0255531,0.0117499,0.0100309,-0.00764134,0.0100309,-0.0130398,0.0129548,-0.00764134,0.0129548,0.00462414,82436.5,6636.77,-5148.83,6636.77,67042.8,8505.31,-5148.83,8505.31,77629.1,10,562,563,566,842,3712
14130.2,0.0145268,0.00925287,-0.0029775,-0.00481148,-0.0029775,-0.00941243,0.00620348,-0.00481148,0.00620348,0.00134274,33666.7,-2115.87,-3057.03,-2115.87,22203.4,4454.93,-3057.03,4454.93,28250.9,10,504,535,768,798,3713
25644.1,0.0265122,0.0116272,0.0106987,6.66553e-05,0.0106987,0.0115842,0.0110487,6.66553e-05,0.0110487,-0.0179221,142924,6868.64,-787.385,6868.64,144601,5212.44,-787.385,5212.44,123012,10,505,570,768,850,3714
23841.6,0.0244884,0.0138386,0.00900054,-0.00991621,0.00900054,-0.0106635,0.0107776,-0.00991621,0.0107776,-0.00195135,18649.2,6120.32,-6784.68,6120.32,3859.23,6951.64,-6784.68,6951.64,8268.36,10,566,567,843,846,3715
18223.3,0.0187624,0.00133265,0.005472,-0.00128224,0.005472,0.00336382,0.0149608,-0.00128224,0.0149608,-0.00241919,56971.9,3524.75,-830.776,3524.75,58501.8,9636.4,-830.776,9636.4,54214.2,10,503,766,817,848,3716
23515.5,0.0240608,0.000551662,-0.0146444,0.00112161,-0.0146444,-0.0153047,0.00287955,0.00112161,0.00287955,0.0136468,-64251.2,-9763.8,819.648,-9763.8,-73682.6,1943.46,819.648,1943.46,-55294.9,10,444,515,529,722,3717
16242.2,0.0166123,0.00552954,-0.00198791,-0.00312641,-0.00198791,-0.00472848,0.0128036,-0.00312641,0.0128036,-0.00260531,-67977.9,-1337.15,-2003.94,-1337.15,-74139.8,8380.37,-2003.94,8380.37,-73747.3,10,503,504,767,797,3718
17822.1,0.0182636,0.00721592,6.742e-06,-0.00125088,6.742e-06,-0.000395915,0.013976,-0.00125088,0.013976,-0.00737762,-29622.3,-52.4948,-772.093,-52.4948,-34310,9017.83,-772.093,9017.83,-39408.5,10,503,537,569,817,3719
13346.2,0.0137129,0.00757796,0.00193093,0.00206735,0.00193093,-0.00149676,0.00945301,0.00206735,0.00945301,-0.00528093,21478.6,1290.91,1291.16,1290.91,15788.1,6068.65,1291.16,6068.65,12858.5,10,503,534,765,797,3720
20008,0.0204599,0.00895964,0.00210774,-0.00134669,0.00210774,-0.00898174,0.015043,-0.00134669,0.015043,-0.00168332,-69653,1300.28,-866.045,1300.28,-80852.7,9923.05,-866.045,9923.05,-77129.7,10,503,504,534,797,3721
19736.1,0.020324,0.0102445,0.00273411,-0.0102437,0.00273411,-0.00802358,0.010664,-0.0102437,0.010664,0.000267483,66395.6,1847.1,-6819.52,1847.1,55057.1,6885.73,-6819.52,6885.73,59678,10,566,845,846,849,3722
18320.3,0.0187565,0.0022134,-0.00152053,-0.000335838,-0.00152053,-0.00812693,-0.014647,-0.000335838,-0.014647,0.00482114,-50888.6,-988.031,-227.853,-988.031,-57740.4,-9483.08,-227.853,-9483.08,-49065.6,10,455,456,480,707,3723
22962,0.0236757,0.00405573,-0.0038448,-0.0176479,-0.0038448,-0.00317276,-0.00892098,-0.0176479,-0.00892098,0.00257998,86791.6,-2467.79,-11541.1,-2467.79,82194,-5556.25,-11541.1,-5556.25,85454.5,10,466,725,726,749,3724
33144.8,0.0338673,0.00131482,-0.0250181,-0.00764921,-0.0250181,-0.0100395,-0.00976069,-0.00764921,-0.00976069,0.00767838,-89794.6,-16306.1,-5065.23,-16306.1,-97032,-6444.17,-5065.23,-6444.17,-85662.3,10,485,490,491,755,3725
15326.1,0.0157394,0.00911058,0.00441711,0.00675568,0.00441711,-0.00268046,-0.00765414,0.00675568,-0.00765414,-0.0058352,12877.4,2891.42,4467.95,2891.42,5386.59,-4920.25,4467.95,-4920.25,3198.27,10,605,705,873,878,3726
16004,0.0164571,0.00804637,0.00346543,-0.0012498,0.00346543,-0.0118849,-0.0085491,-0.0012498,-0.0085491,0.0052546,37468.6,2207.97,-850.134,2207.97,24393.4,-5398.22,-850.134,-5398.22,35798.2,10,608,609,611,880,3727
33999.7,0.0353561,-0.00372648,0.0256999,0.00672151,0.0256999,0.00186963,-0.013135,0.00672151,-0.013135,0.0115037,243028,15797.3,5416.89,15797.3,252225,-8211.05,5416.89,-8211.05,254946,10,620,623,803,895,3728
42195.5,0.043168,0.0178427,0.0172184,-0.00169529,0.0172184,-0.0368836,-0.00787802,-0.00169529,-0.00787802,0.0198456,-54545.7,9287.25,-1303.19,9287.25,-92273.3,-5377.61,-1303.19,-5377.61,-54374.8,10,446,447,492,699,3729
15627.1,0.0160848,0.00558578,-0.00127096,0.000189717,-0.00127096,-0.00694292,-0.0121574,0.000189717,-0.0121574,0.00332514,54205.4,-808.383,147.485,-808.383,45949.5,-7815.82,147.485,-7815.82,52870,10,480,742,743,745,3730
17781.7,0.0182743,0.00629629,-0.00149426,-0.000739684,-0.00149426,-0.00976571,-0.0130268,-0.000739684,-0.0130268,0.00462638,24898.4,-978.287,-485.818,-978.287,14399.5,-8403.75,-485.818,-8403.75,23900,10,455,706,707,737,3731
16434.2,0.0168435,0.00306081,0.00171061,-0.00195109,0.00171061,-0.0103916,-0.011157,-0.00195109,-0.011157,0.00677358,-29776.8,1128.1,-1280.98,1128.1,-38683.1,-7135.02,-1280.98,-7135.02,-27220.9,10,455,456,612,881,3732
18390.6,0.0188786,0.00431486,-0.000285294,-0.000511615,-0.000285294,-0.0081174,-0.0146781,-0.000511615,-0.0146781,0.00431301,1776.33,-184.339,-333.82,-184.339,-6422.51,-9478.62,-333.82,-9478.62,1899.23,10,456,707,708,881,3733
18278.4,0.0187045,0.00241726,-0.00144597,-9.81269e-05,-0.00144597,-0.0081174,-0.0146781,-9.81269e-05,-0.0146781,0.00431301,-60157.1,-943.331,-72.8419,-943.331,-67140,-9509.31,-72.8419,-9509.31,-58794.4,10,456,480,707,708,3734
18517.2,0.0196538,0.0127322,-0.00341249,0.0043627,-0.00341249,-0.00333751,-0.0134118,0.0043627,-0.0134118,0.0113136,650828,-2345.68,2571.1,-2345.68,640812,-8416.42,2571.1,-8416.42,650156,10,447,698,805,809,3735
37650.2,0.0387153,0.0269981,0.0017162,-0.0112352,0.0017162,-0.0324278,-0.00829462,-0.0112352,-0.00829462,0.00868554,48937.7,-445.221,-7548.99,-445.221,10608,-5580.25,-7548.99,-5580.25,36892.8,10,488,492,493,700,3736
10153.9,0.0103801,0,-0.00501481,0,-0.00501481,-0.00236211,-0.00733497,0,-0.00733497,0,-81212.1,-3262.11,47.976,-3262.11,-82888.3,-4771.36,47.976,-4771.36,-81174.7,10,463,715,716,736,3737
15989.5,0.0164106,0.00418227,-0.0100185,-0.0014029,-0.0100185,-0.00993728,-0.0048423,-0.0014029,-0.0048423,0.0060144,-2048.55,-6434.48,-869.929,-6434.48,-11449.5,-3124.12,-869.929,-3124.12,-950.454,10,441,487,752,896,3738
9945.44,0.0102003,0,0.00776701,0.00145975,0.00776701,-0.00193223,-0.00354624,0.00145975,-0.00354624,0.00152442,-18107,5037.47,918.03,5037.47,-19535.7,-2313.24,918.03,-2313.24,-17187,10,549,825,831,861,3739
11995.6,0.0123161,0.00238227,0.00598917,-0.00043896,0.00598917,-0.00214669,-0.00851902,-0.00043896,-0.00851902,6.78711e-05,3963.94,3871.26,-346.275,3871.26,849.044,-5516.26,-346.275,-5516.26,2512.19,10,588,589,601,868,3740
15182.3,0.0155783,0.00229157,0.00809892,0.00516607,0.00809892,-0.00948381,-0.00396947,0.00516607,-0.00396947,0.00726358,-7949.79,5160.11,3298.66,5160.11,-15919.7,-2587.4,3298.66,-2587.4,-4845.59,10,595,596,862,884,3741
22385.9,0.0230441,0.0073573,0.0169165,0.00218142,0.0169165,-0.0107492,-0.00254271,0.00218142,-0.00254271,0.00583784,57405.2,10926.6,1424.31,10926.6,45602.1,-1718.39,1424.31,-1718.39,56354.2,10,548,550,831,860,3742
11846.8,0.0121499,0.00362617,0.00793629,0.00253893,0.00793629,-0.00353964,-0.00532593,0.00253893,-0.00532593,-0.000451116,-16544.8,5160.89,1620.57,5160.89,-21297.9,-3442.63,1620.57,-3442.63,-19177.2,10,549,588,595,861,3743
18533,0.019003,0.00742967,0.0143569,-0.00118947,0.0143569,-0.00760113,-0.00261115,-0.00118947,-0.00261115,-5.45303e-06,-18414.8,9339.65,-802.191,9339.65,-28159.3,-1696.41,-802.191,-1696.41,-23218.6,10,548,549,550,831,3744
14423.8,0.0148306,0.00362617,0.0086929,0.00344061,0.0086929,-0.00759528,-0.00535256,0.00344061,-0.00535256,0.00524553,32636.9,5613.02,2213.52,5613.02,25275.3,-3467.48,2213.52,-3467.48,33658.5,10,549,550,595,861,3745
8772.47,0.00901524,0.00302143,0.00592549,-0.00249217,0.00592549,-0.00452907,-0.00153193,-0.00249217,-0.00153193,0.00226321,22358.6,3783.39,-1683.41,3783.39,17313,-903.274,-1683.41,-903.274,21828.8,10,601,823,868,869,3746
13211.4,0.0135312,0.00484924,-0.00974602,0.00184097,-0.00974602,-0.00595765,-0.00310652,0.00184097,-0.00310652,-8.40495e-06,-41611.2,-6308.67,1231.72,-6308.67,-48752.1,-2016.77,1231.72,-2016.77,-44800.8,10,440,441,507,718,3747
11756.8,0.0120387,0.00246458,-0.0082493,-9.93911e-05,-0.0082493,-0.00373944,-0.00555816,-9.93911e-05,-0.00555816,-3.3979e-05,-47507.5,-5354.95,-22.0637,-5354.95,-51674.2,-3604.23,-22.0637,-3604.23,-49141.3,10,440,464,470,730,3748
10878.2,0.0111548,0,-0.00752422,-0.000853854,-0.00752422,-0.00347113,-0.00505533,-0.000853854,-0.00505533,0.00297977,-21800.2,-4872.91,-517.223,-4872.91,-24225,-3282.03,-517.223,-3282.03,-19918.6,10,440,717,718,730,3749
14283.4,0.0146786,0.00221024,0.00840384,0.00160486,0.00840384,-0.00573969,-0.00771891,0.00160486,-0.00771891,0.00448342,21643.7,5405.92,982.9,5405.92,16274.8,-4997.45,982.9,-4997.45,23070.6,10,588,596,601,868,3750
29537.2,0.0302641,0.0124213,0.0115696,0.00877657,0.0115696,-0.0213964,-0.0112938,0.00877657,-0.0112938,0.00921557,-29145.8,7124.54,5601.25,7124.54,-51635.7,-7548.23,5601.25,-7548.23,-31686,10,597,598,615,864,3751
9644.63,0.00989615,0.00186436,-0.00404091,-5.32635e-05,-0.00404091,-0.00186333,-0.00732372,-5.32635e-05,-0.00732372,-0.000151762,-8376.23,-2615.28,9.18991,-2615.28,-10924.7,-4747.93,9.18991,-4747.93,-9640.7,10,463,464,475,736,3752
16898.2,0.0173083,0.00018526,0.00659659,0.00412214,0.00659659,-0.0127176,-0.00397804,0.00412214,-0.00397804,0.0116277,-43609.4,4280.83,2668.78,4280.83,-52012.4,-2614.09,2668.78,-2614.09,-36159.8,10,618,834,890,894,3753
23582.3,0.0241757,0.014239,0.00595569,0.0123553,0.00595569,-0.00428682,-0.00952026,0.0123553,-0.00952026,-0.00990235,-17631.3,3818.14,8026.33,3818.14,-29559.2,-6133.15,8026.33,-6133.15,-33573.8,10,453,600,605,867,3754
15337.2,0.0157558,0.00414576,-0.0096924,-0.00183701,-0.0096924,-0.00804994,-0.00607911,-0.00183701,-0.00607911,0.00469511,16062.1,-6224.74,-1117.14,-6224.74,7875.08,-3903.54,-1117.14,-3903.54,16357.1,10,469,728,729,735,3755
36994,0.0376893,0.005816,-0.016214,0.0248055,-0.016214,-0.0117182,0.00982239,0.0248055,0.00982239,0.00348694,-145284,-10385.9,17168.6,-10385.9,-153189,5760.18,17168.6,5760.18,-145459,10,529,532,533,796,3756
34754.4,0.0361086,0.0247083,0.000584629,-0.00166295,0.000584629,-0.030752,-0.00972782,-0.00166295,-0.00972782,0.0152405,246560,-787.002,-1248.04,-787.002,210573,-5062.77,-1248.04,-5062.77,240941,10,447,506,536,770,3757
29292.5,0.0299661,0.00582533,-0.0108821,0.0128065,-0.0108821,-0.0219529,0.00386593,0.0128065,0.00386593,0.0153794,-65042.7,-7927.51,8567.87,-7927.51,-81347.2,2377.56,8567.87,2377.56,-57932.2,10,445,529,533,723,3758
37189.6,0.0380238,-0.000839577,-0.0212732,0.0128942,-0.0212732,-0.017736,0.0118055,0.0128942,0.0118055,0.0183601,-81216.4,-14274.3,9246.12,-14274.3,-88105.6,7605.12,9246.12,7605.12,-67161.9,10,445,446,533,723,3759
34108.9,0.0344443,0.0185421,-0.00408597,6.69611e-05,-0.00408597,-0.0364204,5.87671e-05,6.69611e-05,5.87671e-05,0.00986668,-305728,-3952.92,157.204,-3952.92,-341518,950.595,157.204,950.595,-311253,10,447,533,698,770,3760
23034.9,0.023609,0.00778797,-0.00873011,-0.000290148,-0.00873011,-0.0162042,-0.0120725,-0.000290148,-0.0120725,0.00829255,-27021.7,-6498.94,-667.579,-6498.94,-41170,-7958.4,-667.579,-7958.4,-26195.2,10,445,494,722,723,3761
29302.3,0.0298808,0.00290827,-0.0113168,0.00812573,-0.0113168,-0.0216942,-0.0103548,0.00812573,-0.0103548,0.016122,-128965,-8707.08,4589.3,-8707.08,-142006,-7354.1,4589.3,-7354.1,-118807,10,493,699,723,757,3762
28136.7,0.0289682,0.00233489,-0.0163702,0.0107872,-0.0163702,-0.0147309,0.00408916,0.0107872,0.00408916,0.0153999,55383.4,-11043.3,7549.54,-11043.3,47524.3,2742.21,7549.54,2742.21,65090,10,446,533,698,723,3763
22141.9,0.0225993,0.00233489,-0.0145196,0.000291802,-0.0145196,-0.00904431,-0.0110316,0.000291802,-0.0110316,0.00400871,-111875,-9883.4,-220.568,-9883.4,-116659,-7164.43,-220.568,-7164.43,-109176,10,446,698,699,723,3764
44100.1,0.0451052,0.0204618,0.017953,-0.00126945,0.017953,-0.0383005,-0.00912873,-0.00126945,-0.00912873,0.0187581,-57706.6,9527.35,-1091.8,9527.35,-98227.1,-6224.65,-1091.8,-6224.65,-60043,10,446,492,493,699,3765
22834.6,0.0234919,0.00179735,-0.00226085,-0.000632714,-0.00226085,-0.0196191,-0.00405035,-0.000632714,-0.00405035,0.0199327,42076.8,-1829.65,-481.199,-1829.65,28434.4,-2886.27,-481.199,-2886.27,53859.5,10,447,492,699,805,3766
48440.9,0.0492572,0.0266949,-0.00772337,-0.00114813,-0.00772337,-0.0485044,-0.00541147,-0.00114813,-0.00541147,0.0198711,-167132,-4983.46,-803.073,-4983.46,-216379,-4042.84,-803.073,-4042.84,-171704,10,447,449,492,805,3767
19219.2,0.019787,0.0107334,-0.0083817,-0.00432403,-0.0083817,-0.00229252,-0.0112513,-0.00432403,-0.0112513,-0.00612586,62188.7,-5338.95,-2931.96,-5338.95,54145.2,-7214.18,-2931.96,-7214.18,50858,10,452,704,724,747,3768
11149,0.0115697,0.00881554,-0.00125443,-0.000763676,-0.00125443,-0.00821511,-0.00381155,-0.000763676,-0.00381155,0.00609629,213907,-1156.22,-606.113,-1156.22,203209,-2619.85,-606.113,-2619.85,212129,10,492,699,700,807,3769
48005.5,0.0488478,0.0268556,-0.00523987,-0.00280964,-0.00523987,-0.0487106,-0.00157232,-0.00280964,-0.00157232,0.0202587,-153867,-3437.09,-1894.58,-3437.09,-203324,-1730.68,-1894.58,-1730.68,-158228,10,449,450,492,807,3770
22845.5,0.0233477,0.0148697,0.0106911,0.00236555,0.0106911,-0.0108052,-0.0101473,0.00236555,-0.0101473,-0.00593782,-77247.2,7017.86,1864.23,7017.86,-93508.4,-6644.88,1864.23,-6644.88,-91118.6,10,452,703,704,867,3771
21699.4,0.0223154,0.00448089,-0.0165591,-0.00375654,-0.0165591,-0.00907353,-0.00374705,-0.00375654,-0.00374705,0.0063978,36784.9,-10612.1,-2371.11,-10612.1,27382.3,-2444.04,-2371.11,-2444.04,37733.5,10,442,719,720,756,3772
15816.1,0.0162006,0.00441753,-0.00315437,0.00161024,-0.00315437,-0.00906514,-0.0112569,0.00161024,-0.0112569,0.00371028,-40094.1,-2029.26,1091.81,-2029.26,-49044.5,-7235.34,1091.81,-7235.34,-40435.6,10,480,481,743,745,3773
45173.5,0.0460942,0.0266671,-0.00216836,-0.000268135,-0.00216836,-0.045849,0.00217551,-0.000268135,0.00217551,0.0188354,-100267,-1143.97,-175.041,-1143.97,-147710,757.313,-175.041,757.313,-105368,10,449,556,624,806,3774
26100.2,0.0267567,-0.00469091,0.0134316,-0.00484031,0.0134316,-0.000813674,-0.0174749,-0.00484031,-0.0174749,0.00572831,-31867.1,8452.16,-1931.86,8452.16,-25652.5,-11609.9,-1931.86,-11609.9,-24030.1,10,623,802,803,895,3775
36264.7,0.0371749,0.0180097,0.0178648,0.00684936,0.0178648,-0.0138191,-0.0202154,0.00684936,-0.0202154,-0.00295008,-17507.3,11958,5477.73,11958,-35384.3,-13266.6,5477.73,-13266.6,-31777.8,10,617,804,889,893,3776
33870.7,0.034973,0.0272478,-0.00463349,0.013259,-0.00463349,-0.025506,-0.00468303,0.013259,-0.00468303,0.00354998,128827,-2829.05,8545.85,-2829.05,94857.7,-3484.93,8545.85,-3484.93,113334,10,450,451,621,804,3777
33392.1,0.0344763,-0.00830885,0.0268954,-0.000694448,0.0268954,0.00437706,-0.00928102,-0.000694448,-0.00928102,0.00915742,101453,16440.4,111.75,16440.4,115561,-5919.63,111.75,-5919.63,115559,10,622,623,836,895,3778
30951.4,0.0317374,0.00381989,0.0237868,-0.013214,0.0237868,-0.000930025,-0.00228606,-0.013214,-0.00228606,-0.00208751,-22436.2,15118.6,-9179.06,15118.6,-21347.7,-2193.87,-9179.06,-2193.87,-23936.2,10,568,801,836,847,3779
21126.5,0.0215413,0.000106987,0.0157053,0.00027647,0.0157053,-0.00614961,-0.00898272,0.00027647,-0.00898272,0.00267382,-132649,10448.8,450.948,10448.8,-133887,-5802.96,450.948,-5802.96,-129266,10,555,801,802,836,3780
23437.8,0.0238698,-0.00168709,0.0168298,-0.000646216,0.0168298,-0.0111291,-0.00657254,-0.000646216,-0.00657254,0.00890658,-157373,11429,75.302,11429,-158963,-4373.65,75.302,-4373.65,-148261,10,623,802,836,895,3781
45073.9,0.0460902,0.0195753,-0.0224992,-0.00148855,-0.0224992,-0.0368407,-0.0070276,-0.00148855,-0.0070276,0.0181847,-62611.2,-12662,-780.098,-12662,-102178,-4900.4,-780.098,-4900.4,-64998,10,555,623,624,802,3782
30069.3,0.0310148,0.0177729,0.00480055,-0.0140333,0.00480055,-0.0216223,0.00893236,-0.0140333,0.00893236,0.0081269,102006,3397.79,-9485.45,3397.79,77756.5,6593.08,-9485.45,6593.08,95188.6,10,505,570,571,850,3783
36450.4,0.0367851,0.0212235,0.00421517,-0.000731833,0.00421517,-0.0384679,-0.001021,-0.000731833,-0.001021,0.00910452,-316443,3965.77,-574.831,3965.77,-355477,268.149,-574.831,268.149,-324232,10,556,568,800,801,3784
39781.9,0.0412018,0.0296813,-0.00366385,-0.00967582,-0.00366385,-0.0355982,0.00269354,-0.00967582,0.00269354,0.0137931,189049,-1017.47,-6184.48,-1017.47,146825,2445.63,-6184.48,2445.63,178408,10,555,556,568,801,3785
29301.7,0.0299988,0.00559493,0.0108003,-0.0125473,0.0108003,-0.0210723,0.00690472,-0.0125473,0.00690472,0.0152006,-50238.3,7895.58,-8553.11,7895.58,-65652.2,4348.61,-8553.11,4348.61,-43208.1,10,554,564,568,836,3786
17695.5,0.0181477,0.00550584,-0.00155157,0.00207949,-0.00155157,-0.00863906,-0.0135357,0.00207949,-0.0135357,0.00302916,-15893.7,-1017.7,1354.4,-1017.7,-25222.3,-8740.36,1354.4,-8740.36,-17384.6,10,480,707,708,742,3787
11180.4,0.0114779,0.00207894,-0.00971025,-0.000757722,-0.00971025,-0.00188851,-7.74435e-05,-0.000757722,-7.74435e-05,1.70233e-05,1738.9,-6281.19,-492.048,-6281.19,-1067.08,-50.0589,-492.048,-50.0589,286.228,10,508,509,524,788,3788
16581,0.017032,0.00432347,0.0018074,-0.00400711,0.0018074,-0.00934026,-0.0113355,-0.00400711,-0.0113355,0.00581157,14237.8,1129.35,-2640.5,1129.35,5171.43,-7228.11,-2640.5,-7228.11,15343.7,10,612,880,882,883,3789
11542.8,0.0118307,0.00177502,0.00603685,0.00204706,0.00603685,-0.0020612,-0.00778639,0.00204706,-0.00778639,-0.000461556,-29679.7,3912.79,1264.7,3912.79,-32359.4,-5070.04,1264.7,-5070.04,-31097.4,10,589,601,823,868,3790
16112.1,0.0165435,0.00831803,0.00811303,-0.000320812,0.00811303,-0.00871977,-0.00814537,-0.000320812,-0.00814537,0.000926879,8984.47,5209.71,-264.381,5209.71,-2277.18,-5232.87,-264.381,-5232.87,4189.18,10,603,606,870,875,3791
15202.5,0.0155685,0.00236384,0.0017621,-0.00104325,0.0017621,-0.00928507,-0.0107224,-0.00104325,-0.0107224,0.00581775,-45786.2,1156.54,-697.655,1156.54,-53535,-6860.1,-697.655,-6860.1,-43381.6,10,456,612,881,883,3792
17251.4,0.0177474,0.00154847,-0.00165234,-1.48153e-05,-0.00165234,-0.00411694,-0.0146649,-1.48153e-05,-0.0146649,0.00430503,41503,-1059.91,-0.582472,-1059.91,37709.2,-9468.96,-0.582472,-9468.96,43408.9,10,456,458,480,708,3793
16568.4,0.0170394,0.00316694,0.000594434,4.96387e-05,0.000594434,-0.00588054,-0.0136584,4.96387e-05,-0.0136584,0.00422456,36456.1,387.959,16.9573,387.959,30493,-8817.36,16.9573,-8817.36,37236.8,10,456,594,708,883,3794
38468.5,0.0398042,0.0253988,-0.00211952,-0.000988879,-0.00211952,-0.0339126,0.0130687,-0.000988879,0.0130687,0.0156849,168068,-1299.96,-663.767,-1299.96,129447,7624.62,-663.767,7624.62,162186,10,448,449,805,806,3795
25543.1,0.0262084,0.00806411,0.0111176,0.00219775,0.0111176,-0.0104751,-0.0171614,0.00219775,-0.0171614,0.00313721,-5417.49,7342.8,1489.25,7342.8,-17310.9,-11079.6,1489.25,-11079.6,-8251.93,10,556,801,802,806,3796
17530,0.0179651,-0.0046255,0.00630601,-0.0118891,0.00630601,1.13154e-05,0.00648157,-0.0118891,0.00648157,0.00407027,-36164.9,4006.57,-7814.94,4006.57,-33232.3,4271.46,-7814.94,4271.46,-30859.8,10,558,838,839,853,3797
23922.6,0.0249126,0.00652696,-0.0141041,-0.000721037,-0.0141041,-0.0145408,2.15356e-05,-0.000721037,2.15356e-05,0.0175616,280547,-8501.99,-585.75,-8501.99,265773,-305.546,-585.75,-305.546,286960,10,624,802,806,808,3798
27258.2,0.0280483,0.000106985,0.0175054,-0.00993208,0.0175054,-0.0114084,0.00493955,-0.00993208,0.00493955,0.013899,43296.6,11513.6,-7106.94,11513.6,39221.2,3292.59,-7106.94,3292.59,53457.7,10,555,568,801,836,3799
44605.6,0.0455338,0.0185527,-0.021851,-0.00115648,-0.021851,-0.0370617,-0.00701708,-0.00115648,-0.00701708,0.0183342,-96071.4,-12310.1,-573.664,-12310.1,-135072,-4888.04,-573.664,-4888.04,-97637.9,10,555,556,624,802,3800
28763.8,0.0295656,0.00818332,0.00886883,-0.0109465,0.00886883,-0.0225818,-0.00582029,-0.0109465,-0.00582029,0.0164616,28023.9,7376.81,-6750.07,7376.81,10348.1,-4357.88,-6750.07,-4357.88,34552,10,555,623,802,836,3801
11414.8,0.0117159,0,0.00222658,0,0.00222658,8.69054e-05,-0.00989884,0,-0.00989884,0,-3863.37,1446.06,-28.632,1446.06,-3947.09,-6428.82,-28.632,-6428.82,-3742.52,10,589,590,606,823,3802
38054.2,0.0391551,0.0296813,-0.00612896,0.00430439,-0.00612896,-0.0289315,-0.0152541,0.00430439,-0.0152541,0.00294288,62977.6,-2524.46,3075.79,-2524.46,24272,-9548.02,3075.79,-9548.02,45505,10,555,556,801,802,3803
36899.5,0.0384417,0.0249925,-0.00753553,0.000421376,-0.00753553,-0.0322648,0.00838031,0.000421376,0.00838031,0.0183772,299149,-4673.9,142.006,-4673.9,262177,4537.72,142.006,4537.72,295120,10,449,805,807,808,3804
23741.3,0.0244766,0.00553874,-0.00649676,-0.0033555,-0.00649676,-0.0205676,-0.000140068,-0.0033555,-0.000140068,0.0184926,85796.1,-3667.94,-2239.09,-3667.94,68438.7,-466.339,-2239.09,-466.339,93899.4,10,556,624,802,806,3805
34606,0.0362418,0.0253988,-0.00589882,0.000282834,-0.00589882,-0.0288552,0.0095649,0.000282834,0.0095649,0.0174702,400525,-3571.82,76.4004,-3571.82,365644,5407.02,76.4004,5407.02,395696,10,449,805,806,808,3806
45849.2,0.0466587,0.0266838,-0.00706964,0.00136407,-0.00706964,-0.0459412,0.00434971,0.00136407,0.00434971,0.0173944,-151744,-4146.62,811.84,-4146.62,-199589,2108.88,811.84,2108.88,-157823,10,449,624,806,808,3807
17948.1,0.018673,0.0025742,0.00376759,-0.00259735,0.00376759,-0.012216,-0.00304728,-0.00259735,-0.00304728,0.0181963,259284,2132.03,-1703.47,2132.03,249573,-2180.21,-1703.47,-2180.21,269085,10,492,699,805,807,3808
15892.1,0.0162794,0.00819121,0.00920738,-0.0026274,0.00920738,-0.0111826,0.00299211,-0.0026274,0.00299211,0.00209384,-36332.3,5824.06,-1688.35,5824.06,-49230.2,2016.07,-1688.35,2016.07,-40481.9,10,574,578,857,858,3809
30981.2,0.0317558,0.00071174,-0.00762574,0.0116716,-0.00762574,-0.0117025,-0.0206508,0.0116716,-0.0206508,0.0115598,-30635.1,-5598.53,6295.06,-5598.53,-36392.8,-14279.8,6295.06,-14279.8,-23010.9,10,493,699,700,757,3810
41493.4,0.0426249,0.0249925,-0.00640088,0.000657155,-0.00640088,-0.0399302,0.00700044,0.000657155,0.00700044,0.0181347,28429.9,-4027.05,322.188,-4027.05,-13962.1,3580.91,322.188,3580.91,24159.1,10,449,450,807,808,3811
12180,0.0124711,0.00210847,0.00394167,0.000899282,0.00394167,-0.00313587,-0.00966496,0.000899282,-0.00966496,-0.000309902,-49209.9,2544.46,528.62,2544.46,-52784.6,-6282.94,528.62,-6282.94,-50711.4,10,591,610,821,875,3812
28943.5,0.0296023,0.00340537,-0.0135252,-0.00373813,-0.0135252,-0.0101391,-0.0196536,-0.00373813,-0.0196536,0.00582916,-70373.9,-8926.58,-2571.5,-8926.58,-78872.2,-12716.9,-2571.5,-12716.9,-68337.4,10,447,698,699,805,3813
32040.5,0.0331335,-0.000839578,-0.0207698,0.0100396,-0.0207698,-0.00984335,-0.0104301,0.0100396,-0.0104301,0.0167134,138095,-13636.9,5946.81,-13636.9,136018,-7204.52,5946.81,-7204.52,151327,10,445,446,493,723,3814
33566.4,0.0342847,0.0196966,0.00271711,-0.00219797,0.00271711,-0.0335006,-0.0059562,-0.00219797,-0.0059562,0.0125715,-85227.2,1540.81,-1480.4,1540.81,-119955,-3960.6,-1480.4,-3960.6,-89885.3,10,447,448,805,809,3815
32709,0.0337233,0.0253988,-0.00596258,-0.00207322,-0.00596258,-0.0300308,0.00166162,-0.00207322,0.00166162,0.0089387,98994.4,-3635.33,-1339.37,-3635.33,63031.3,750.002,-1339.37,750.002,88303.5,10,448,805,806,810,3816
47052.6,0.047774,0.0267034,-0.00522506,-0.00197759,-0.00522506,-0.0479727,-0.00301241,-0.00197759,-0.00301241,0.0182104,-195894,-3460.84,-1343.85,-3460.84,-244852,-2570.82,-1343.85,-2570.82,-201530,10,449,492,805,807,3817
30536.8,0.0312851,0.0225294,0.0041877,-0.00537192,0.0041877,-0.0285749,0.00239304,-0.00537192,0.00239304,0.00630963,-25034.7,3443.18,-3634.74,3443.18,-57889.9,2009.06,-3634.74,2009.06,-35496.9,10,506,556,800,810,3818
43119.1,0.0437081,0.0262098,-0.00232902,0.00229471,-0.00232902,-0.0444745,-0.000544243,0.00229471,-0.000544243,0.0136325,-227835,-1315.6,1554.37,-1315.6,-274316,-806.778,1554.37,-806.778,-236091,10,448,449,556,806,3819
15075.4,0.0154887,0.00275536,-0.00313076,-6.09819e-05,-0.00313076,-0.00424402,-0.0124386,-6.09819e-05,-0.0124386,0.00233129,17176.9,-2042.25,-21.4759,-2042.25,12519.6,-8037.63,-21.4759,-8037.63,17010.8,10,459,480,481,745,3820
12262.6,0.0125995,0.00305785,0.000711874,0.0010573,0.000711874,-0.00259991,-0.0104609,0.0010573,-0.0104609,0.000299632,18590.2,464.309,668.466,464.309,14777.6,-6767.97,668.466,-6767.97,16938.4,10,594,708,818,883,3821
15857.7,0.0163059,0.00236457,-0.000939797,0.000300593,-0.000939797,-0.00440571,-0.0134316,0.000300593,-0.0134316,0.00341953,32888,-601.291,210.483,-601.291,28365.4,-8669.12,210.483,-8669.12,33700.5,10,458,480,708,745,3822
12890.1,0.0132332,0.00232303,-0.000898449,-0.000143369,-0.000898449,-0.00200931,-0.0112163,-0.000143369,-0.0112163,-3.48772e-05,1936.73,-577.39,-74.5574,-577.39,-1041.76,-7267.99,-74.5574,-7267.99,564.962,10,458,708,710,745,3823
15264.9,0.0156332,0.00259168,-0.00122581,0.000776329,-0.00122581,-0.00691176,-0.012201,0.000776329,-0.012201,0.003248,-44731.8,-783.786,528.831,-783.786,-51060.5,-7883.25,528.831,-7883.25,-44173.4,10,480,708,742,745,3824
17005.6,0.0174461,0.000124014,0.000169063,-0.000783923,0.000169063,-0.00435514,-0.014455,-0.000783923,-0.014455,0.00428803,-12872.9,111.862,-503.434,111.862,-15899,-9358.41,-503.434,-9358.41,-10051.9,10,456,457,594,708,3825
38618.6,0.0393462,0.00796259,0.0179131,-0.0249537,0.0179131,-0.0108909,0.0112713,-0.0249537,0.0112713,0.000741513,-143152,11537.4,-17430.2,11537.4,-151486,6532.4,-17430.2,6532.4,-146601,10,564,567,568,847,3826
22212.6,0.0227227,0.00875499,0.00739705,-0.00735686,0.00739705,-0.00392807,0.014618,-0.00735686,0.014618,-0.00616008,-62763.8,4837.62,-4950.53,4837.62,-70597.5,9455.99,-4950.53,9455.99,-72630.2,10,537,565,569,817,3827
34776.6,0.0357349,0.0182117,-0.00624636,0.00775387,-0.00624636,-0.031116,-0.00953485,0.00775387,-0.00953485,0.0154141,29166,-5016.63,4997.98,-5016.63,-2524.87,-5245.79,4997.98,-5245.79,28259.8,10,447,533,536,770,3828
34471.8,0.0353951,0.00821891,0.0122387,-0.0228204,0.0122387,-0.0118344,0.0122527,-0.0228204,0.0122527,0.0056198,7963.88,7529.73,-15713.6,7529.73,-2593.29,7841.71,-15713.6,7841.71,5750.3,10,568,571,800,847,3829
27044.1,0.0277091,0.0167173,-0.00817492,0.00654678,-0.00817492,-0.024179,0.00251305,0.00654678,0.00251305,0.00745571,-27212.4,-5729.1,4426.88,-5729.1,-53304.6,2039.4,4426.88,2039.4,-33114,10,447,506,770,809,3830
31062.8,0.0319215,0.00643485,-0.0231799,0.0138323,-0.0231799,-0.00363901,-0.00296807,0.0138323,-0.00296807,-0.000664641,21507.1,-14927.2,9507.62,-14927.2,19063.6,-2573.06,9507.62,-2573.06,19334,10,533,698,723,796,3831
23552.1,0.0248286,0.0192766,0.00126352,-0.00687223,0.00126352,-0.0103715,-0.0137661,-0.00687223,-0.0137661,0.00802707,523938,1200.87,-4150.62,1200.87,505165,-8728.99,-4150.62,-8728.99,516958,10,556,801,806,810,3832
43381.5,0.0437271,0.0226139,-0.00869822,-0.00672435,-0.00869822,-0.0430813,-0.00788638,-0.00672435,-0.00788638,0.0124828,-338687,-5465.34,-4444.13,-5465.34,-382226,-5390.77,-4444.13,-5390.77,-345484,10,447,448,449,805,3833
24965.3,0.0253903,0.010975,-0.0137951,-0.000420898,-0.0137951,-0.0168489,-0.00967663,-0.000420898,-0.00967663,0.00124906,-173729,-9276.84,-21.5343,-9276.84,-192019,-5841.62,-21.5343,-5841.62,-179436,10,506,769,770,809,3834
15896.9,0.016284,0.00819134,0.00923755,-0.00291448,0.00923755,-0.0111328,0.00275777,-0.00291448,0.00275777,0.00203192,-36716.1,5843.74,-1874.35,5843.74,-49587.8,1865.4,-1874.35,1865.4,-40910.1,10,573,574,578,857,3835
36806.5,0.037807,0.026298,0.00492296,-0.0049807,0.00492296,-0.0289381,-0.0156912,-0.0049807,-0.0156912,0.00516472,28061.3,1683.37,-3577.64,1683.37,-8393.8,-9871.76,-3577.64,-9871.76,14161.6,10,446,447,698,699,3836
28068.5,0.0287127,0.0158112,-0.00100251,0.00206712,-0.00100251,-0.0284241,0.00389908,0.00206712,0.00389908,0.0117471,-58374.9,-678.164,1335.43,-678.164,-87266.1,2214.23,1335.43,2214.23,-60972.6,10,448,805,809,810,3837
17412.6,0.018004,0.00599438,-0.00880802,-0.00807804,-0.00880802,1.3774e-05,-0.0092403,-0.00807804,-0.0092403,-0.00121943,141067,-5755.21,-5656.26,-5755.21,138807,-5613.3,-5656.26,-5613.3,136856,10,489,753,754,757,3838
16494.5,0.0171404,0.0135933,-0.00840077,-0.00285706,-0.00840077,-0.00998121,-0.00091931,-0.00285706,-0.00091931,0.0041454,243716,-4779.18,-1849.79,-4779.18,227848,-915.236,-1849.79,-915.236,237173,10,624,802,803,808,3839
26558.3,0.027197,0.00259648,0.0208285,0.00559472,0.0208285,-0.0105938,-0.00100372,0.00559472,-0.00100372,0.00763682,-45993.1,13474,3565.73,13474,-55226.2,-644.991,3565.73,-644.991,-43035.3,10,551,552,575,833,3840
24353,0.0249864,0.00281613,-0.0162674,-0.00463127,-0.0162674,-0.0143582,-0.0011488,-0.00463127,-0.0011488,0.0121541,-9159.94,-10517.8,-3020.6,-10517.8,-20514.8,-785.062,-3020.6,-785.062,-3206.6,10,515,519,721,783,3841
14856.1,0.0152496,0.00523385,-0.0093724,-0.00288928,-0.0093724,-0.00904698,-0.00389729,-0.00288928,-0.00389729,0.00410557,1557.13,-5980.06,-1832.81,-5980.06,-8003.32,-2554.21,-1832.81,-2554.21,678.108,10,441,523,525,719,3842
18289.7,0.0187116,0.00476004,-0.0130654,-0.00141536,-0.0130654,-0.0105462,-0.00377773,-0.00141536,-0.00377773,0.00425734,-63139.6,-8430.15,-888.251,-8430.15,-73374.8,-2495.13,-888.251,-2495.13,-63599.1,10,441,525,718,719,3843
19443.1,0.0199399,0.000231538,-0.0131735,-0.0029749,-0.0131735,-0.00955429,-0.00516724,-0.0029749,-0.00516724,0.0093207,-19349.7,-8518.56,-1889.8,-8518.56,-25985.7,-3352.29,-1889.8,-3352.29,-13563.8,10,443,491,721,756,3844
17570.5,0.0181023,-0.00285286,0.00124164,-0.0080309,0.00124164,-0.00601693,-0.00962016,-0.0080309,-0.00962016,0.011504,67144.3,781.585,-5410.1,781.585,65002.9,-6101.61,-5410.1,-6101.61,76269.3,10,490,754,755,758,3845
17039.4,0.0174923,0.00430274,-0.0111971,-0.00325319,-0.0111971,-0.00959888,-0.00465592,-0.00325319,-0.00465592,0.00575498,2670.2,-7186.11,-2066.68,-7186.11,-6653,-3025.02,-2066.68,-3025.02,3482.58,10,441,487,719,752,3846
16793.7,0.0171807,0.00644148,0.00994788,0.00628092,0.00994788,-0.0108097,0.000705085,0.00628092,0.000705085,0.00273739,-62475.9,6363.96,4082.82,6363.96,-74012.1,422.478,4082.82,422.478,-65054.7,10,550,579,581,860,3847
9795.6,0.010024,0,-0.00680775,0,-0.00680775,-0.00176553,-0.00528916,0,-0.00528916,0,-61621,-4426.61,46.916,-4426.61,-62928.4,-3439.18,46.916,-3439.18,-61644.9,10,440,464,717,730,3848
20530.1,0.0210767,0.00368532,0.0139116,0.00391359,0.0139116,-0.0120032,0.00223123,0.00391359,0.00223123,0.00901034,2957.89,8990.67,2531.43,8990.67,-7391.45,1462.97,2531.43,1462.97,6327.99,10,552,575,833,834,3849
21586.7,0.0221961,0.00460331,0.0161095,0.00520928,0.0161095,-0.00854256,-0.00450755,0.00520928,-0.00450755,0.0056442,33945.4,10308.2,3306.85,10308.2,24722.4,-2931.51,3306.85,-2931.51,34316.4,10,551,832,833,890,3850
24828.1,0.0253432,0.00692156,0.0164868,-0.00533329,0.0164868,-0.016266,0.00154231,-0.00533329,0.00154231,0.00690196,-105248,10420.6,-3527.77,10420.6,-121295,1279.87,-3527.77,1279.87,-105835,10,574,575,579,858,3851
26923.7,0.0276804,0.00730844,0.0195225,-0.000448854,0.0195225,-0.0138067,-0.0059552,-0.000448854,-0.0059552,0.00854886,33079.8,12594.3,-278.826,12594.3,19195.1,-3917.44,-278.826,-3917.44,33764.6,10,550,831,832,884,3852
25972.3,0.0265444,0.00730844,0.0190042,0.00249077,0.0190042,-0.0143988,-0.00400681,0.00249077,-0.00400681,0.00549405,-81202.9,12329.9,1618.61,12329.9,-95555.3,-2690.65,1618.61,-2690.65,-82513.1,10,550,831,832,860,3853
12548.7,0.0128737,0.00847363,0.000446404,-0.00175767,0.000446404,-0.00675027,-0.00778277,-0.00175767,-0.00778277,-0.00187539,-7460.91,209.954,-1156.57,209.954,-17470.2,-5014.57,-1156.57,-5014.57,-14122.9,10,606,822,874,875,3854
20237.6,0.0207754,0.010682,0.00327551,0.0111305,0.00327551,-0.0111444,-0.00833097,0.0111305,-0.00833097,0.00110291,6759.61,2032.84,7104.77,2032.84,-7718.21,-5414.64,7104.77,-5414.64,274.354,10,598,864,865,870,3855
19452.2,0.0200054,0.00490969,0.0117345,0.00464991,0.0117345,-0.0102442,-0.00722057,0.00464991,-0.00722057,0.0070221,37919,7493,2960.31,7493,27747.7,-4706.65,2960.31,-4706.65,39127.3,10,550,551,613,832,3856
30326.6,0.0309653,-0.00315292,0.0240896,0.0043344,0.0240896,-0.007955,-0.00635097,0.0043344,-0.00635097,0.00933986,-106712,15751.2,2905.16,15751.2,-109434,-4103.19,2905.16,-4103.19,-98377.2,10,552,553,618,834,3857
18180.1,0.0189946,0.0158112,-0.000852966,0.00109836,-0.000852966,-0.00428276,-0.012453,0.00109836,-0.012453,-0.000395,349246,-535.945,705.385,-535.945,335913,-7849.2,705.385,-7849.2,339414,10,506,769,809,810,3858
17498.7,0.017819,0.00699816,-0.00615963,0.00185393,-0.00615963,-0.0158875,0.0062487,0.00185393,0.0062487,0.00451769,-152168,-4506.86,1636.94,-4506.86,-165940,4815.78,1636.94,4815.78,-154012,10,536,769,770,799,3859
25323.5,0.0257961,0.014116,0.0125162,0.0020562,0.0125162,-0.0182267,-0.00863413,0.0020562,-0.00863413,0.000477479,-140672,8495.25,1102.82,8495.25,-161844,-5156.39,1102.82,-5156.39,-148987,10,506,769,800,810,3860
20003,0.0205541,0.00553439,0.00621716,0.000378089,0.00621716,-0.0135679,-0.0113262,0.000378089,-0.0113262,0.0092365,21008.6,4769.49,714.929,4769.49,9810.66,-7434.37,714.929,-7434.37,23805.3,10,622,835,836,895,3861
18776.6,0.0192885,-0.00544383,0.0130053,0.00787975,0.0130053,-0.00144021,-0.00117264,0.00787975,-0.00117264,0.00783925,7920.55,8137.98,5287.3,8137.98,12609.5,-525.115,5287.3,-525.115,17524.4,10,620,892,893,895,3862
27562.9,0.0282225,0.0142825,0.00909881,-0.0120265,0.00909881,0.000912826,0.012118,-0.0120265,0.012118,-0.0155384,-41363.9,5874.08,-8377.46,5874.08,-48839.1,7239.58,-8377.46,7239.58,-60802.2,10,566,570,846,849,3863
30538.3,0.0312118,0.00808817,0.000343843,0.0127457,0.000343843,-0.0269114,0.00424439,0.0127457,0.00424439,0.0176329,-80431.5,-445.462,8449.93,-445.462,-103012,3456.26,8449.93,3456.26,-74414.9,10,529,532,792,796,3864
21487.7,0.0220091,0.00802642,-0.00649318,-0.00902043,-0.00649318,-0.0180702,-0.000206897,-0.00902043,-0.000206897,0.00941451,-38764.5,-4575.53,-5647.62,-4575.53,-55523,796.591,-5647.62,796.591,-37620.7,10,504,767,768,798,3865
27361.4,0.0280753,0.00802196,0.00770423,-0.00250163,0.00770423,-0.0231776,0.00979088,-0.00250163,0.00979088,0.0160656,-5010.83,6028.12,-2109.63,6028.12,-23911.6,6613.06,-2109.63,6613.06,610.379,10,554,564,835,836,3866
38633.2,0.0398992,0.026298,0.00251783,0.00865933,0.00251783,-0.0358498,0.0029896,0.00865933,0.0029896,0.0155795,132388,140.776,5617.47,140.776,92186.5,2609.8,5617.47,2609.8,125141,10,446,447,533,698,3867
47327.2,0.0481779,0.0251013,-0.00761088,0.00337223,-0.00761088,-0.0473525,-0.00439435,0.00337223,-0.00439435,0.0208044,-146765,-4485.88,2273.7,-4485.88,-194417,-2624.38,2273.7,-2624.38,-149607,10,448,506,556,810,3868
20946.9,0.0214944,0.0127921,-0.00586953,0.00457903,-0.00586953,-0.018856,0.00322636,0.00457903,0.00322636,0.00649857,-562.636,-4248.84,3118.11,-4248.84,-20628.5,2371.3,3118.11,2371.3,-4545.87,10,447,698,770,809,3869
21266.3,0.0219076,0.00212042,-0.00573003,0.0129139,-0.00573003,-0.00783298,0.00961714,0.0129139,0.00961714,0.00851427,68035.1,-3644.1,8660.83,-3644.1,62113.8,6226.42,8660.83,6226.42,71766.7,10,527,528,531,792,3870
22007.2,0.022527,0.0116206,-0.00560178,0.00341486,-0.00560178,-0.0107763,0.0145084,0.00341486,0.0145084,-0.00180891,-48583.4,-3779.86,2439.25,-3779.86,-62493.3,9553,2439.25,9553,-57709.1,10,534,794,797,798,3871
17129,0.0175544,0.00750913,-0.00700456,0.00454481,-0.00700456,-0.0109031,0.00835418,0.00454481,0.00835418,0.0028372,-28381.2,-4765.88,3203.37,-4765.88,-39632.9,5570.2,3203.37,5570.2,-31468.5,10,531,791,794,795,3872
20507.1,0.0209687,0.00867095,0.0054562,-0.00530863,0.0054562,-0.00940606,0.0137838,-0.00530863,0.0137838,-0.000981782,-71386.7,3647.11,-3695.84,3647.11,-82489.8,9056.46,-3695.84,9056.46,-78006.1,10,569,845,848,849,3873
39306.4,0.0401323,0.0158112,-0.000283475,0.00137401,-0.000283475,-0.0399267,0.0034329,0.00137401,0.0034329,0.0233338,-95238.3,-225.205,904.531,-225.205,-131636,2209.05,904.531,2209.05,-90326.2,10,448,506,809,810,3874
10091.6,0.0103438,0,0,-0.00888722,0,0,0.00103156,-0.00888722,0.00103156,-0.00077245,-29936.7,-11.9256,-5774.96,-11.9256,-30038.1,670.312,-5774.96,670.312,-30646,10,538,539,561,815,3875
21222.8,0.0218253,0.0034946,-0.0131653,0.0132437,-0.0131653,-0.00110698,0.00146385,0.0132437,0.00146385,-0.000621656,34847.6,-8211.4,9050.64,-8211.4,34010.1,378.373,9050.64,378.373,33234.5,10,533,698,770,796,3876
27694.8,0.0284929,0.0153416,0.00944712,-0.0135926,0.00944712,0.000605817,0.011318,-0.0135926,0.011318,-0.0134153,51078.6,6037.97,-9353.46,6037.97,42761,6712.55,-9353.46,6712.55,32493.9,10,566,569,570,849,3877
19339.4,0.0198046,0.00463349,-0.014496,-0.00171116,-0.014496,-0.0100693,-0.00307492,-0.00171116,-0.00307492,0.00454952,-44623.3,-9374.67,-1080.46,-9374.67,-54429.2,-2030.74,-1080.46,-2030.74,-44796.9,10,525,718,719,789,3878
14260.5,0.0146595,3.10675e-07,0.0107054,0.00361375,0.0107054,-0.00457372,-0.00264062,0.00361375,-0.00264062,0.00570861,26128.7,6900.99,2343.51,6900.99,22850.9,-1768.1,2343.51,-1768.1,29645.4,10,548,826,831,860,3879
13885.3,0.0143147,0.00690883,0.00832131,0.00618425,0.00832131,-0.00644249,0.000331433,0.00618425,0.000331433,0.00236766,85708.4,5303.5,3981.75,5303.5,76848,186.92,3981.75,186.92,82646.7,10,548,550,581,860,3880
24078.1,0.0247081,0.00730994,0.0194326,-0.000497599,0.0194326,-0.00851234,-0.00392023,-0.000497599,-0.00392023,0.00187164,-3374.12,12576.1,-392.967,12576.1,-13879.8,-2539.82,-392.967,-2539.82,-6986.53,10,550,831,861,884,3881
17192.4,0.0176494,0.00029824,0.00699656,0.00281501,0.00699656,-0.0123071,-0.00481676,0.00281501,-0.00481676,0.0124745,-46.7495,4534.39,1804.07,4534.39,-8239.25,-3155.78,1804.07,-3155.78,7853.55,10,618,890,891,894,3882
10133.6,0.010399,0.00573804,0.00218942,-0.00384574,0.00218942,-0.00237185,-0.00602839,-0.00384574,-0.00602839,-0.00343647,-3737.5,1382.39,-2504.16,1382.39,-9166.18,-3900.8,-2504.16,-3900.8,-9675.5,10,591,606,822,875,3883
10400.6,0.0106573,0.00366572,0.00234903,-0.00266264,0.00234903,-0.0061564,-0.00677192,-0.00266264,-0.00677192,0.0015471,-33464.7,1463.63,-1781.67,1463.63,-40010.5,-4328.42,-1781.67,-4328.42,-34767.2,10,610,820,821,879,3884
10785.2,0.0110831,0.00562346,0.00142022,-0.00250216,0.00142022,-0.0063929,-0.00681844,-0.00250216,-0.00681844,0.00155896,23055.8,838.825,-1668.63,838.825,15119.5,-4344.23,-1668.63,-4344.23,20502,10,610,820,879,882,3885
16094.6,0.0165503,0.00553105,0.000363863,-0.00251206,0.000363863,-0.00965987,-0.0110442,-0.00251206,-0.0110442,0.00555012,35876.5,204.284,-1643.58,204.284,25856.7,-7038.77,-1643.58,-7038.77,36051,10,612,880,881,883,3886
12857.7,0.0132102,0.00609671,0.00287661,0.00245989,0.00287661,-0.00533081,-0.00915727,0.00245989,-0.00915727,-1.88243e-05,19410,1901.46,1612.46,1901.46,11982.4,-5923.4,1612.46,-5923.4,15501.4,10,609,706,878,881,3887
11662.3,0.0119521,0.0043012,0.00114048,0.00134705,0.00114048,-0.0053628,-0.00897038,0.00134705,-0.00897038,0.000260035,-29972.9,753.386,878.72,753.386,-36294.3,-5822.1,878.72,-5822.1,-32559.3,10,609,878,880,881,3888
19131.2,0.0196586,0.00900171,0.0108232,-0.00676846,0.0108232,-0.0101313,0.00571524,-0.00676846,0.00571524,0.00228739,24413,6810.89,-4342.57,6810.89,11623.3,3862.42,-4342.57,3862.42,19699.1,10,574,852,853,857,3889
11062.8,0.0113406,0.00799208,0.000166424,8.56149e-05,0.000166424,-0.00688547,-0.00626688,8.56149e-05,-0.00626688,-0.00177852,-22685.8,27.2983,38.1691,27.2983,-32451.5,-4038.88,38.1691,-4038.88,-28952.8,10,606,822,823,874,3890
28806.5,0.029528,-0.00521817,0.0231033,0.00454518,0.0231033,-0.0032084,-0.00644788,0.00454518,-0.00644788,0.00885441,-33230.7,14993,3076.08,14993,-30874.1,-4136.11,3076.08,-4136.11,-23592.5,10,553,618,619,894,3891
10847.9,0.0111276,0.00242409,-0.00309452,-0.0023873,-0.00309452,-0.00643579,-0.0068569,-0.0023873,-0.0068569,0.00372588,-13637.8,-1990.66,-1509,-1990.66,-19541.4,-4392.37,-1509,-4392.37,-12724.3,10,474,479,734,741,3892
15245.1,0.0156165,-9.78014e-06,-0.00013087,-0.0111297,-0.00013087,-0.00488063,-0.00627995,-0.0111297,-0.00627995,0.00395398,-41788.9,-80.2373,-7282.85,-80.2373,-45088.8,-4042.89,-7282.85,-4042.89,-39430,10,467,726,727,733,3893
23281.9,0.0239961,0.008708,-0.00266142,0.0110623,-0.00266142,-0.0180188,0.00500523,0.0110623,0.00500523,0.0125583,81878.8,-2112.56,7376.33,-2112.56,65243.9,3773.34,7376.33,3773.34,84293.3,10,532,792,795,796,3894
23950.8,0.0245689,-0.00458636,-0.0153155,0.00955588,-0.0153155,-0.00553189,0.00671401,0.00955588,0.00671401,0.0105815,-17778.7,-9838.51,6438.5,-9838.51,-18287.9,4558.89,6438.5,4558.89,-8217.83,10,515,778,779,783,3895
29366.2,0.0300741,-0.000512038,-0.0222971,-0.00459014,-0.0222971,-0.00920463,-0.00843039,-0.00459014,-0.00843039,0.00964797,-47546.3,-14555.9,-3057.89,-14555.9,-52737.2,-5474.22,-3057.89,-5474.22,-40729.5,10,444,491,721,755,3896
38470.2,0.0391278,0.0255888,-0.00450742,0.000663137,-0.00450742,-0.0382961,-0.00484387,0.000663137,-0.00484387,0.00949255,-162924,-2605.75,524.956,-2605.75,-204845,-3347.19,524.956,-3347.19,-173536,10,448,556,806,810,3897
21469.3,0.0220263,0.00534846,-0.0151832,-0.00366943,-0.0151832,-0.0102865,-0.00621769,-0.00366943,-0.00621769,0.00529653,-8572.94,-9725.78,-2290.56,-9725.78,-19307.9,-4048.17,-2290.56,-4048.17,-8858.36,10,487,719,751,752,3898
25178.7,0.0258564,0.00153379,-0.0176149,0.0052928,-0.0176149,-0.0111813,-0.00638891,0.0052928,-0.00638891,0.010849,6394.28,-11659.1,3299.16,-11659.1,-727.044,-4253.76,3299.16,-4253.76,12893,10,444,494,722,758,3899
11251,0.0115351,-0.00289056,-0.00672306,0.00647638,-0.00672306,0.000848847,0.00266363,0.00647638,0.00266363,0.0014656,-26833.8,-4345.16,4247.19,-4345.16,-24470.1,1772.82,4247.19,1772.82,-24166.1,10,517,780,781,785,3900
31210.4,0.0318603,0.00236485,-0.021945,0.00077309,-0.021945,-0.0164001,-0.00823564,0.00077309,-0.00823564,0.0122129,-107965,-14559.8,271.253,-14559.8,-119008,-5548.36,271.253,-5548.36,-101074,10,444,490,494,758,3901
30765.4,0.0316613,0.00621718,-0.00608801,0.00364945,-0.00608801,-0.0206135,-0.0178873,0.00364945,-0.0178873,0.0173897,50752.7,-4828.27,1735.85,-4828.27,34330.3,-11728.3,1735.85,-11728.3,58435.1,10,494,722,723,757,3902
31541.4,0.0322984,0.00933754,-0.00911458,0.0102005,-0.00911458,-0.0259227,-0.00878492,0.0102005,-0.00878492,0.0166434,-44219.3,-7773.04,6094,-7773.04,-64763.5,-6334.57,6094,-6334.57,-38204.5,10,446,493,699,723,3903
12176.5,0.0124635,-0.00460678,0.00578036,-0.00662801,0.00578036,0.00279732,0.00499875,-0.00662801,0.00499875,0.00028106,-59673.6,3724.1,-4355.53,3724.1,-54942.7,3295.93,-4355.53,3295.93,-56697.7,10,572,573,851,856,3904
17147,0.0175948,0.00835482,0.0100273,0.00428654,0.0100273,-0.0119236,-0.000464436,0.00428654,-0.000464436,0.00375905,-3381.73,6354.96,2750.69,6354.96,-16898.3,-318.464,2750.69,-318.464,-6557.37,10,550,579,832,860,3905
17720.9,0.0182428,-0.000673583,0.0139066,0.000163101,0.0139066,-0.00579135,0.00162639,0.000163101,0.00162639,0.00864016,53088.7,9014.51,68.3463,9014.51,49874.4,1089.15,68.3463,1089.15,59157.8,10,560,834,840,854,3906
22945.9,0.0235442,0.000554765,0.0112732,0.00360943,0.0112732,-0.0155701,0.00577917,0.00360943,0.00577917,0.0155509,-9824.36,7489.89,2171.69,7489.89,-19695.8,3928.18,2171.69,3928.18,229.778,10,553,560,834,835,3907
30169.4,0.0311851,-0.000852544,0.0195255,-0.0109788,0.0195255,-0.0100606,-0.00676142,-0.0109788,-0.00676142,0.0164998,129870,12880.1,-6766.52,12880.1,127571,-4837.42,-6766.52,-4837.42,142897,10,554,555,623,836,3908
21013.9,0.0215657,0.00802196,0.00733873,-0.000428773,0.00733873,-0.0159771,-0.00995724,-0.000428773,-0.00995724,0.0084682,-1755.33,5660.89,138.18,5660.89,-16036.7,-6582.81,138.18,-6582.81,-995.227,10,554,622,835,836,3909
44979.1,0.0458031,0.0147671,0.00476242,0.0282622,0.00476242,-0.0304376,-0.00912349,0.0282622,-0.00912349,0.0139301,-146826,3320.32,18752.6,3320.32,-176057,-6318.1,18752.6,-6318.1,-148234,10,616,620,887,893,3910
23586,0.0242614,-0.00172005,0.0179919,0.00109449,0.0179919,-0.00815999,-0.0032961,0.00109449,-0.0032961,0.0119706,36842.1,11703.5,712.726,11703.5,33122,-2106.34,712.726,-2106.34,45944.4,10,618,619,891,894,3911
28993.3,0.0296961,-0.00302037,0.0225187,-0.00491923,0.0225187,-0.00745585,-0.00657661,-0.00491923,-0.00657661,0.0104399,-47246.3,14768.6,-3019.58,14768.6,-48390.5,-4362.83,-3019.58,-4362.83,-37776.7,10,553,622,835,894,3912
20964.4,0.0216028,0.000554762,0.0118568,0.000299727,0.0118568,-0.0104023,-0.00863318,0.000299727,-0.00863318,0.0128068,72323.5,7847.39,297.787,7847.39,65919.9,-5666.19,297.787,-5666.19,80409.9,10,553,834,835,894,3913
10205.9,0.0104883,0.00264922,-0.00656632,-0.000111153,-0.00656632,-0.00535899,0.00393219,-0.000111153,0.00393219,0.00350696,22019.3,-4220.18,-76.6099,-4220.18,16743.2,2579.17,-76.6099,2579.17,22524.3,10,517,521,785,786,3914
10953.5,0.0112258,0.00112499,0.00616586,0.00135621,0.00616586,-0.00193802,-0.007229,0.00135621,-0.007229,-8.54567e-06,-31792.4,4001.86,818.342,4001.86,-33960.8,-4699.17,818.342,-4699.17,-32485.8,10,589,601,602,823,3915
37215.1,0.0382156,-0.00182761,0.0268966,0.00101805,0.0268966,-0.0124406,0.012402,0.00101805,0.012402,0.0166708,2669.42,17615.2,104.586,17615.2,-1590.64,8369.81,104.586,8369.81,15713.9,10,553,554,564,835,3916
12247.5,0.0125772,0.00378589,-0.00583758,-0.000463372,-0.00583758,-0.00544714,-0.00775807,-0.000463372,-0.00775807,0.00209214,8606.82,-3785.14,-250.237,-3785.14,2466.91,-4979.15,-250.237,-4979.15,7581.98,10,473,734,739,740,3917
16846.7,0.0173657,0.00502336,-0.013193,-0.00129473,-0.013193,-0.00705723,-0.00144389,-0.00129473,-0.00144389,0.00495169,82346.3,-8489.45,-822.972,-8489.45,74354,-970.941,-822.972,-970.941,82201.3,10,507,525,718,789,3918
12985.7,0.0133479,2.76943e-07,-0.0100647,-0.00322138,-0.0100647,-0.00373442,-0.00194968,-0.00322138,-0.00194968,0.00476465,24553.2,-6502.02,-2072.76,-6502.02,21849.4,-1295.05,-2072.76,-1295.05,27490.3,10,507,718,771,789,3919
12852.9,0.0132207,0.00684105,0.00921133,0.000957945,0.00921133,-0.00638128,0.00119364,0.000957945,0.00119364,0.000987903,42598.9,5870.19,641.459,5870.19,33769.9,790.181,641.459,790.181,38681.7,10,578,581,859,860,3920
19761.8,0.0202597,0.00469044,0.0136878,0.00272632,0.0136878,-0.0102974,-0.00586288,0.00272632,-0.00586288,0.00541599,-23109.7,8818.69,1726.66,8818.69,-33189.9,-3796.16,1726.66,-3796.16,-22779.8,10,550,595,861,884,3921
12391.9,0.0126897,5.90077e-09,0.0104484,4.1704e-05,0.0104484,-0.00399337,0.000362057,4.1704e-05,0.000362057,0.00274123,-48001.4,6773.48,25.3313,6773.48,-50885.1,238.049,25.3313,238.049,-46359.2,10,547,581,827,859,3922
36032.8,0.0366599,0.00830629,0.0175578,-0.00802813,0.0175578,-0.0241192,0.0152823,-0.00802813,0.0152823,0.0125018,-168564,11584.5,-5631.76,11584.5,-188923,10480.7,-5631.76,10480.7,-166086,10,560,563,564,840,3923
8564.49,0.00877588,0,-0.00755556,0,-0.00755556,-0.00099891,0.000585705,0,0.000585705,0,-35792.8,-4910.23,-5.75831,-4910.23,-36591.7,380.64,-5.75831,380.64,-35866.7,10,509,510,774,785,3924
10015.5,0.0102542,0.00292419,-0.0077953,-0.000220701,-0.0077953,-0.00490129,0.00140603,-0.000220701,0.00140603,0.000520277,-50005.1,-5040.1,-141.157,-5040.1,-55232.9,929.305,-141.157,929.305,-51642,10,521,522,524,788,3925
10055.9,0.0103256,0.0029246,-0.00789408,0.000719845,-0.00789408,-0.00464934,0.000124944,0.000719845,0.000124944,0.00202128,6309.17,-5090.38,470.69,-5090.38,1249.86,100.726,470.69,100.726,5648.2,10,522,524,788,789,3926
24345,0.0251115,-0.00218212,-0.0139439,0.0114673,-0.0139439,-0.0051808,0.00843573,0.0114673,0.00843573,0.0111777,90211.4,-8899.86,7598.68,-8899.86,88403.5,5596.78,7598.68,5596.78,98549.3,10,515,528,778,779,3927
18236.4,0.0187627,-0.00458803,-0.0139553,-0.000135073,-0.0139553,-0.00375744,0.000422065,-0.000135073,0.000422065,0.0102054,39419.9,-9039.47,-38.3322,-9039.47,40140.5,320.862,-38.3322,320.862,49093,10,515,721,779,783,3928
12144.6,0.0125025,0.00743044,-0.00774304,0.00101411,-0.00774304,-0.007377,-0.000555471,0.00101411,-0.000555471,0.00186613,58997.1,-4913.19,661.264,-4913.19,49199,-338.303,661.264,-338.303,55287.7,10,522,786,788,789,3929
26188.8,0.0268316,0.00333031,-0.0206617,-0.00498628,-0.0206617,-0.0104523,-0.00183276,-0.00498628,-0.00183276,0.00702223,-36200.1,-13370.1,-3175.63,-13370.1,-45699.8,-1208.43,-3175.63,-1208.43,-34075.9,10,442,443,519,720,3930
9897.75,0.0101814,0.00253969,-0.008574,0.000642713,-0.008574,-0.00124052,0.000365714,0.000642713,0.000365714,6.64177e-05,40595.6,-5535.28,413.937,-5535.28,37963.3,252.652,413.937,252.652,38898.5,10,509,521,524,788,3931
10014.1,0.0102644,-3.49234e-07,-0.00854322,0.00217527,-0.00854322,-0.00122925,0.000736619,0.00217527,0.000736619,0.000452612,-30012.1,-5548.16,1410.06,-5548.16,-31007.6,503.049,1410.06,503.049,-29824.5,10,509,773,785,788,3932
12341.5,0.012679,0.00181237,-0.0106133,0.000138859,-0.0106133,-0.00301596,-0.00011222,0.000138859,-0.00011222,0.00188686,15447.4,-6854.93,101.467,-6854.93,12042.4,-53.8711,101.467,-53.8711,15359.6,10,508,524,788,789,3933
17834.1,0.0182167,0.00471015,-0.0144657,0.00191153,-0.0144657,-0.00719253,-0.000257301,0.00191153,-0.000257301,-2.63478e-05,-93714.6,-9391.52,1257.54,-9391.52,-101713,-176.992,1257.54,-176.992,-96913.3,10,507,508,525,789,3934
11720.5,0.012018,0.00487484,0.00853488,0.0014806,0.00853488,-0.0062179,0.00132224,0.0014806,0.00132224,0.000855593,-19422.6,5470.85,979.97,5470.85,-26854.1,870.171,979.97,870.171,-22135.6,10,578,580,581,859,3935
9438.04,0.00970451,0.00713077,0.00389947,-0.00238216,0.00389947,-0.00470601,0.00354738,-0.00238216,0.00354738,-0.00132226,35565.1,2415.47,-1469.92,2415.47,27754.1,2342.76,-1469.92,2342.76,29966.4,10,577,829,855,856,3936
11953.5,0.0122371,0.00487545,0.00868131,8.12731e-05,0.00868131,-0.00639777,0.00222182,8.12731e-05,0.00222182,7.02059e-05,-50704.9,5568.43,78.1609,5568.43,-58276.7,1478.45,78.1609,1478.45,-53953,10,577,578,580,859,3937
10081.5,0.0103193,0,0.0088315,0,0.0088315,-0.00159309,-0.00101245,0,-0.00101245,0,-56321.8,5741.89,-11.6471,5741.89,-57563.9,-658.252,-11.6471,-658.252,-56422.1,10,546,547,580,828,3938
3866.11,0.00396837,0,0.0034365,0,0.0034365,-5.79865e-05,-1.74588e-05,0,-1.74588e-05,0,-2613.24,2231.78,-0.0779348,2231.78,-2681.58,-11.3383,-0.0779348,-11.3383,-2628.58,10,545,829,830,855,3939
13547.2,0.0139594,0.00626415,0.0105532,0.00116462,0.0105532,-0.00482488,0.00162296,0.00116462,0.00162296,0.00109092,76057.7,6730.38,776.983,6730.38,68541.8,1063.9,776.983,1063.9,72546.9,10,581,827,859,860,3940
11038.3,0.0113582,0.00468337,0.00876267,0.00184045,0.00876267,-0.00345007,0.000156349,0.00184045,0.000156349,0.000358382,48042.9,5619.52,1193.85,5619.52,42533.2,113.963,1193.85,113.963,45133.6,10,547,580,581,859,3941
10662.8,0.0109099,0,-0.00512853,0,-0.00512853,-0.00181524,-0.00786572,0,-0.00786572,0,-64151.3,-3334.9,52.5676,-3334.9,-65483.2,-5114.8,52.5676,-5114.8,-64104.9,10,461,462,479,714,3942
10698.2,0.0109742,0.00283313,-0.00354662,-0.000957498,-0.00354662,-0.00603478,-0.00709622,-0.000957498,-0.00709622,0.00292028,-13064.7,-2278.15,-571.544,-2278.15,-18982.8,-4548.08,-571.544,-4548.08,-12928.7,10,479,713,740,741,3943
34924.6,0.0354945,0.00639155,-0.0164252,0.00578095,-0.0164252,-0.0231018,0.0166565,0.00578095,0.0166565,0.0126298,-190494,-10968,4210.86,-10968,-208704,11344.8,4210.86,11344.8,-186530,10,515,528,529,779,3944
4018.58,0.00412662,0,-0.00354853,0,-0.00354853,0.00019833,0.000408114,0,0.000408114,0,5565,-2304.15,-1.88039,-2304.15,5660.84,264.999,-1.88039,264.999,5548.86,10,510,511,775,784,3945
11333.7,0.0116009,0,-0.0100004,0,-0.0100004,-0.00156179,0.000336818,0,0.000336818,0,-56653.9,-6501.94,-4.38768,-6501.94,-57931.8,218.987,-4.38768,218.987,-56784,10,508,509,773,788,3946
16482.8,0.0168881,0.00346896,0.0104051,-0.0018476,0.0104051,-0.0100121,-0.00541522,-0.0018476,-0.00541522,0.00580604,-35255.8,6669.38,-1292.61,6669.38,-44370.2,-3422.25,-1292.61,-3422.25,-33830.7,10,596,601,863,868,3947
14294.6,0.0145237,0,0.0121114,0,0.0121114,-0.00587293,0.000139505,0,0.000139505,0,-199319,7897.77,2.21727,7897.77,-203557,90.97,2.21727,90.97,-199511,10,548,826,827,860,3948
13975,0.0144046,-0.00525245,0.000945495,-0.00792202,0.000945495,-0.00281103,0.00414991,-0.00792202,0.00414991,0.0107927,74316.8,485.146,-5299.48,485.146,75948.8,2580.9,-5299.48,2580.9,84532.9,10,564,835,840,844,3949
12083.9,0.0123331,0,0.0104785,0,0.0104785,-0.00326621,0.000850575,0,0.000850575,0,-112395,6820.63,11.6436,6820.63,-114816,553.654,11.6436,553.654,-112537,10,547,827,828,859,3950
9911.45,0.0101521,-8.03443e-07,-0.00677969,0.00541948,-0.00677969,-0.00077223,0.00134727,0.00541948,0.00134727,-0.000420008,-43291.1,-4402.69,3520.77,-4402.69,-43950.5,924.793,3520.77,924.793,-43700.9,10,510,774,784,785,3951
7991.67,0.00822221,0.00386303,-0.00478375,0.00354752,-0.00478375,-0.00240346,0.0022848,0.00354752,0.0022848,-3.86682e-05,44941.2,-3070.81,2268.4,-3070.81,40784.6,1514.47,2268.4,1514.47,42313.7,10,516,521,784,785,3952
15665.3,0.0161459,0.00478449,-0.0120227,-0.00117667,-0.0120227,-0.00689947,-0.00190928,-0.00117667,-0.00190928,0.00489551,79788.2,-7723.69,-748.766,-7723.69,72030.7,-1272.95,-748.766,-1272.95,79751.2,10,441,507,525,718,3953
11171.3,0.0114536,0.00464605,0.00882037,0.00151417,0.00882037,-0.00277228,0.000846748,0.00151417,0.000846748,-0.00244924,-21705.2,5678.14,1006.35,5678.14,-26776.8,560.633,1006.35,560.633,-26432.2,10,547,580,828,859,3954
34189,0.035172,0.0125053,-0.0118043,0.0108134,-0.0118043,-0.028463,-0.00276537,0.0108134,-0.00276537,0.0190923,47905.5,-7924.04,7612.21,-7924.04,22091.9,360.014,7612.21,360.014,52506.8,10,505,536,769,799,3955
12024.9,0.0123727,0.00342802,0.00418009,0.00015688,0.00418009,-0.0010923,-0.00953895,0.00015688,-0.00953895,-0.000740924,46018.7,2717.45,75.3855,2717.45,42972.2,-6172.23,75.3855,-6172.23,43410.8,10,592,610,611,882,3956
16268.1,0.0166822,0.00415783,-0.0100616,-0.00162838,-0.0100616,-0.00989479,-0.00567046,-0.00162838,-0.00567046,0.00549416,-18656.4,-6468.19,-1018.9,-6468.19,-28017.6,-3677.11,-1018.9,-3677.11,-17883.7,10,469,487,752,896,3957
35965.6,0.0368791,0.0130242,0.0222295,0.00710353,0.0222295,0.00142415,-0.0174415,0.00710353,-0.0174415,-0.0130927,-14926.8,14412.9,5272.98,14412.9,-20665.5,-10928.3,5272.98,-10928.3,-32077,10,599,616,617,888,3958
15105.2,0.015495,0.00426243,-0.0100062,-0.00171251,-0.0100062,-0.00685356,-0.00642827,-0.00171251,-0.00642827,0.00249962,-11811.6,-6444.96,-1048.22,-6444.96,-19296.9,-4158.11,-1048.22,-4158.11,-13031.4,10,469,470,475,729,3959
15756.3,0.0161741,0.00675898,-0.00526181,0.00146703,-0.00526181,-0.00807716,-0.0104653,0.00146703,-0.0104653,0.00167336,3051.57,-3377.26,1005.41,-3377.26,-6757.45,-6733.47,1005.41,-6733.47,-171.082,10,477,739,743,744,3960
17514,0.0178938,0,0,0.000336898,0,0,0.0154313,0.000336898,0.0154313,-0.00238868,-92468.5,6.78457,219.201,6.78457,-92157.9,10040.3,219.201,10040.3,-94338.2,10,502,503,537,817,3961
13005.7,0.0133214,0.00531529,0.00216344,-0.00100006,0.00216344,-0.00974509,-0.00777213,-0.00100006,-0.00777213,0.00334485,-40118.8,1367,-686.219,1367,-50085.8,-4926.54,-686.219,-4926.54,-41253.9,10,611,612,880,882,3962
15645.6,0.016022,0.000281421,-0.00214686,0.000967019,-0.00214686,-0.00458868,-0.0130943,0.000967019,-0.0130943,0.00321096,-47563.9,-1390.45,642.07,-1390.45,-50867.5,-8484.15,642.07,-8484.15,-45525,10,458,459,480,745,3963
16558.8,0.0169924,0.00575415,-0.0042752,0.00207468,-0.0042752,-0.00897059,-0.0114607,0.00207468,-0.0114607,0.00341854,-3858.33,-2724.61,1404.87,-2724.61,-13616.2,-7357.93,1404.87,-7357.93,-5248.33,10,477,481,743,744,3964
11423.8,0.0117074,-2.67786e-05,-0.0023018,-0.000408127,-0.0023018,-0.00135904,-0.00981667,-0.000408127,-0.00981667,0.000557359,-33316.6,-1500.24,-235.186,-1500.24,-34321.9,-6372.54,-235.186,-6372.54,-32819.3,10,460,482,712,746,3965
15133.3,0.0155145,0.0057023,-0.00428017,0.00318587,-0.00428017,-0.00876681,-0.00969511,0.00318587,-0.00969511,0.00261064,-22604.7,-2729.39,2122.82,-2729.39,-32187.1,-6217.97,2122.82,-6217.97,-24516.3,10,481,482,744,746,3966
14376,0.0147676,0.00157477,-0.00246238,-3.05759e-05,-0.00246238,-0.00432314,-0.0118753,-3.05759e-05,-0.0118753,0.00345643,13171.6,-1597.21,1.73397,-1597.21,9220.5,-7667.22,1.73397,-7667.22,14505,10,459,481,745,746,3967
33934.2,0.0348321,-0.00182761,0.027695,-0.00350978,0.027695,-0.00452411,-0.00929175,-0.00350978,-0.00929175,0.00811191,-5162.44,18079.7,-1923.64,18079.7,-4351.16,-6037.97,-1923.64,-6037.97,2309.4,10,553,554,622,835,3968
10508.8,0.0107718,0,0,0.00919006,0,0,0.00154499,0.00919006,0.00154499,-0.000735281,-29173.4,18.4691,5971.65,18.4691,-29280.1,1003.93,5971.65,1003.93,-29874.4,10,499,500,526,763,3969
13593,0.0139154,0.00639514,0.0103295,0.00101214,0.0103295,-0.00538721,2.35523e-05,0.00101214,2.35523e-05,-0.0023942,-49640.2,6629.73,676.091,6629.73,-57640.4,36.0678,676.091,36.0678,-55519.6,10,548,581,827,860,3970
41358.8,0.0421327,0.019718,0.00299543,-0.00174584,0.00299543,-0.0422662,-0.00430482,-0.00174584,-0.00430482,0.0206778,-136273,1710.43,-1166.01,1710.43,-176900,-2554.1,-1166.01,-2554.1,-135606,10,447,448,506,809,3971
22417.6,0.0231016,0.00202909,0.0134475,-0.0145373,0.0134475,0.00166488,0.00246229,-0.0145373,0.00246229,-0.000601457,73649,8153.43,-9913.83,8153.43,75610.6,888.425,-9913.83,888.425,72895,10,568,800,801,847,3972
30752.2,0.0315128,-0.00297315,0.0255276,-0.00156448,0.0255276,-0.00504329,-0.00616122,-0.00156448,-0.00616122,0.0084405,-39756,16543.7,-683.289,16543.7,-35850.9,-3981.95,-683.289,-3981.95,-29790,10,554,622,623,836,3973
15342.4,0.015762,0.00158178,-0.00026008,-0.000175924,-0.00026008,-0.0117395,-0.00748081,-0.000175924,-0.00748081,0.0109746,15189,294.319,129.294,294.319,6616.2,-4941.33,129.294,-4941.33,21232.6,10,622,835,894,895,3974
24356.6,0.02495,-0.00148202,0.0147513,4.3368e-05,0.0147513,-0.014287,0.00522654,4.3368e-05,0.00522654,0.0154158,-43403.7,9761.26,-138.46,9761.26,-50844.8,3525.69,-138.46,3525.69,-32007.4,10,553,560,564,835,3975
25583.4,0.0259577,0.0117483,0.00987825,-0.00545721,0.00987825,-0.0132439,0.0147369,-0.00545721,0.0147369,-0.0044883,-218686,6667.81,-3781.56,6667.81,-234355,9748.67,-3781.56,9748.67,-229517,10,562,565,566,842,3976
36848.4,0.0376405,-0.000852544,0.0199055,-0.0131339,0.0199055,-0.0173551,0.0138436,-0.0131339,0.0138436,0.0173999,-98773.7,13380.5,-9548.16,13380.5,-105447,8908.2,-9548.16,8908.2,-85505.1,10,554,555,568,836,3977
30601.9,0.0314272,0.012161,-0.0058282,-0.0190218,-0.0058282,-0.0141173,-0.0128509,-0.0190218,-0.0128509,0.00366122,14609.9,-3962.07,-12677.6,-3962.07,-1660.61,-8237.42,-12677.6,-8237.42,8733.52,10,483,484,489,748,3978
17514,0.0178938,0,0,0.000336898,0,0,0.0154313,0.000336898,0.0154313,-0.00238868,-92468.5,6.78457,219.201,6.78457,-92157.9,10040.3,219.201,10040.3,-94338.2,10,502,503,766,817,3979
24716.3,0.0253862,0.00553237,0.00196733,0.000466589,0.00196733,-0.0184206,-0.0139371,0.000466589,-0.0139371,0.014165,13128.7,564.183,-92.2054,564.183,-2647.57,-8976.28,-92.2054,-8976.28,18713.8,10,494,722,757,758,3980
12298.3,0.0125201,0,0.0104158,0,0.0104158,-0.00477697,-0.0012125,0,-0.0012125,0,-161337,6786.69,-16.5406,6786.69,-164752,-790.038,-16.5406,-790.038,-161477,10,547,548,581,827,3981
35097.2,0.036065,-0.000657113,-0.0254955,-0.00128838,-0.0254955,-0.0136499,0.00944707,-0.00128838,0.00944707,0.0168704,16519,-16772,-403.06,-16772,10499.5,6411.89,-403.06,6411.89,28901.3,10,444,445,529,722,3982
33203.6,0.0340617,-0.00065711,-0.0261396,0.00236404,-0.0261396,-0.0059962,-0.0114716,0.00236404,-0.0114716,0.00797301,-15925.4,-17122.6,1116.84,-17122.6,-16939.8,-7498.73,1116.84,-7498.73,-9381.03,10,444,445,494,722,3983
7447.91,0.00764825,0,0,0.00656738,0,0,0.000846857,0.00656738,0.000846857,0.000268847,5859.16,7.22127,4264.34,7.22127,5804.09,549.883,4264.34,549.883,5920.76,10,497,498,516,762,3984
18103.1,0.0186011,0.00477563,-0.0128817,0.00144175,-0.0128817,-0.00747648,-0.00672701,0.00144175,-0.00672701,0.0037595,20369.2,-8286.58,1011.84,-8286.58,12144.6,-4336.44,1011.84,-4336.44,19648.4,10,441,718,730,896,3985
10388.6,0.0106463,0,0.0030119,0,0.0030119,-0.000871111,-0.0086996,0,-0.0086996,0,-33510.7,1957.29,-34.0907,1957.29,-34199.5,-5653.45,-34.0907,-5653.45,-33424.1,10,592,610,820,821,3986
11962.8,0.0123014,0.00263557,-0.00574234,-0.00235594,-0.00574234,-0.00255383,-0.00823571,-0.00235594,-0.00823571,0.00114861,33911.8,-3701.57,-1464.73,-3701.57,30370.2,-5338.11,-1464.73,-5338.11,32962,10,462,479,714,741,3987
28193.4,0.0288168,0.0202973,0.00245985,-0.00399459,0.00245985,-0.0271201,0.00352886,-0.00399459,0.00352886,0.00546151,-71508.1,2370.17,-2736.69,2370.17,-102100,2702.14,-2736.69,2702.14,-81169.8,10,556,800,801,810,3988
21346.1,0.0219783,0.00278523,-0.0119506,0.00190666,-0.0119506,-0.012735,-0.00737615,0.00190666,-0.00737615,0.0124496,58221.8,-7960.17,1135.43,-7960.17,48799.7,-4858.69,1135.43,-4858.69,64659.4,10,444,721,722,758,3989
20061.2,0.0205586,-0.0078991,-0.00192295,0.0154607,-0.00192295,0.00322014,0.00536625,0.0154607,0.00536625,0.00426803,-38918.3,-1047.67,10141.9,-1047.67,-31682.7,3440.13,10141.9,3440.13,-31323.5,10,527,777,778,791,3990
16520.5,0.0169175,0.00300438,-0.0110902,-0.000146353,-0.0110902,-0.00918233,-0.00566347,-0.000146353,-0.00566347,0.0051146,-46174.4,-7160.47,-42.7208,-7160.47,-54347.5,-3654.51,-42.7208,-3654.51,-44881.5,10,441,470,730,896,3991
15375.1,0.0158436,0.00214279,-0.00596205,0.00170308,-0.00596205,-0.00183036,-0.0120123,0.00170308,-0.0120123,0.00233096,74129.5,-3849.99,1119.73,-3849.99,71466.1,-7753.46,1119.73,-7753.46,74377.4,10,460,481,482,746,3992
16265.7,0.0166919,0.00412992,-0.00476956,-3.64884e-05,-0.00476956,-0.00583084,-0.0126055,-3.64884e-05,-0.0126055,0.00189428,-4702.33,-3073.54,22.1643,-3073.54,-11304.7,-8162.4,22.1643,-8162.4,-6089.04,10,461,478,482,740,3993
28490.6,0.0292523,0.00112951,-0.011625,-0.00258898,-0.011625,-0.0155735,-0.015909,-0.00258898,-0.015909,0.0158269,2446.09,-8020.92,-2248.15,-8020.92,-6840.83,-10237.2,-2248.15,-10237.2,12784.6,10,489,490,494,757,3994
31031.3,0.0318204,-0.000918016,-0.0250569,0.00064506,-0.0250569,-0.00647919,-0.00870421,0.00064506,-0.00870421,0.00825669,-25106.4,-16409.9,-57.3765,-16409.9,-23909.2,-5637.09,-57.3765,-5637.09,-16848.2,10,445,493,494,723,3995
13097,0.0133571,0,-0.0113181,0,-0.0113181,-0.00367121,-0.00110397,0,-0.00110397,0,-126712,-7369.31,16.3353,-7369.31,-129448,-718.805,16.3353,-718.805,-126878,10,507,771,772,789,3996
13909.5,0.0142323,0.000660984,-0.00306519,0.00121627,-0.00306519,-0.00453406,-0.0113402,0.00121627,-0.0113402,0.00219744,-63331,-1987.18,813.212,-1987.18,-66834.9,-7353.79,813.212,-7353.79,-62219.1,10,459,460,481,746,3997
14931.3,0.0153094,0.00367776,-0.00280328,0.00178118,-0.00280328,-0.00849242,-0.0105902,0.00178118,-0.0105902,0.00442726,-21493.4,-1788.38,1205.4,-1788.38,-29576.7,-6792.83,1205.4,-6792.83,-20892,10,481,743,745,746,3998
22168.8,0.0228509,0.019967,-0.00247211,-0.00298872,-0.00247211,-0.0108052,-0.0101473,-0.00298872,-0.0101473,-0.00593782,91102.4,-1738.8,-2025.91,-1738.8,71648.8,-6624.49,-2025.91,-6624.49,73987.1,10,452,703,704,747,3999
14015.8,0.0144038,0.00243256,0.00110517,-0.00116486,0.00110517,-0.00444049,-0.0116613,-0.00116486,-0.0116613,0.0029559,21946.8,724.718,-763.805,724.718,17366.2,-7524.69,-763.805,-7524.69,22398.4,10,456,594,612,883,4000
18597.9,0.0190679,0.00308591,0.00014059,-0.000110485,0.00014059,-0.00765738,-0.0151368,-0.000110485,-0.0151368,0.00435027,-22875.5,92.8143,-84.6068,92.8143,-29999.1,-9786.68,-84.6068,-9786.68,-21916.5,10,456,708,881,883,4001
11673.3,0.0119476,0.000909885,0.0025124,-0.000616501,0.0025124,-0.00216017,-0.0098987,-0.000616501,-0.0098987,-0.000343511,-57619.9,1634.25,-427.705,1634.25,-59747.7,-6433.87,-427.705,-6433.87,-58328.8,10,592,593,611,882,4002
10950.1,0.0112144,0,0.00287671,0,0.00287671,-0.00124794,-0.00924807,0,-0.00924807,0,-46242,1869.93,-34.6362,1869.93,-47187.2,-6011.46,-34.6362,-6011.46,-46141.4,10,592,593,820,882,4003
12506.3,0.012805,0,-0.000119378,0,-0.000119378,-0.001334,-0.011062,0,-0.011062,0,-50882.9,-77.6056,1.71967,-77.6056,-51910.9,-7191.25,1.71967,-7191.25,-50723.6,10,457,594,708,818,4004
17514,0.0178938,0,0,0.000336898,0,0,0.0154313,0.000336898,0.0154313,-0.00238868,-92468.5,6.78457,219.201,6.78457,-92157.9,10040.3,219.201,10040.3,-94338.2,10,502,503,765,766,4005
11765.4,0.0121635,0.00122587,-0.00137257,0.00957259,-0.00137257,0.00062051,-0.00405142,0.00957259,-0.00405142,0.0026016,136516,-854.989,6153.97,-854.989,136033,-2671.05,6153.97,-2671.05,137294,10,527,790,791,794,4006
21150.3,0.0216855,0.0104214,-0.00955791,0.00557479,-0.00955791,-0.00304681,0.0119937,0.00557479,0.0119937,-0.00741244,-17378.1,-6084.16,3374.03,-6084.16,-26368.7,7927.54,3374.03,7927.54,-29151.6,10,526,527,530,790,4007
21915.3,0.0224686,0.00278523,-0.0112147,-0.0022669,-0.0112147,-0.0165769,0.0034013,-0.0022669,0.0034013,0.013775,-23819.9,-7522.43,-1377.15,-7522.43,-35821.7,2338.47,-1377.15,2338.47,-16389.8,10,444,515,721,722,4008
31730.5,0.0325226,-0.00133319,-0.0249267,-0.00541463,-0.0249267,-0.0107805,0.00143659,-0.00541463,0.00143659,0.0127786,-31920.8,-16261.4,-3394.48,-16261.4,-37760.4,1074.74,-3394.48,1074.74,-22596.6,10,443,444,515,721,4009
8872.67,0.0091289,-0.00380313,0.00578312,-0.00321896,0.00578312,0.00273112,0.00220855,-0.00321896,0.00220855,0.00253547,40526.7,3740.6,-2112.33,3740.6,44727,1452.62,-2112.33,1452.62,44576.2,10,573,852,856,857,4010
10829.3,0.0111229,0,0,0.00760787,0,0,0.00590168,0.00760787,0.00590168,0.000488091,9761.58,58.2857,4939.55,58.2857,9731.66,3831.78,4939.55,3831.78,9882.9,10,501,530,764,765,4011
10829.3,0.0111229,0,0,0.00760787,0,0,0.00590168,0.00760787,0.00590168,0.000488091,9761.58,58.2857,4939.55,58.2857,9731.66,3831.78,4939.55,3831.78,9882.9,10,500,501,530,764,4012
15432,0.0158925,-0.00605354,-0.00405001,0.0115379,-0.00405001,0.0059798,0.00134061,0.0115379,0.00134061,0.0023549,57096.9,-2587.99,7509.01,-2587.99,64816.4,864.493,7509.01,864.493,62357.6,10,513,776,777,790,4013
36223,0.0374457,-0.00477429,-0.0232609,0.00715114,-0.0232609,-0.00577954,-0.0172139,0.00715114,-0.0172139,0.0168265,128372,-14844.2,3754.16,-14844.2,132178,-11431.2,3754.16,-11431.2,144624,10,493,494,723,757,4014
10992.8,0.0112884,0,0,-0.00724174,0,0,0.00656381,-0.00724174,0.00656381,0.000366869,5677.4,-61.7184,-4702.24,-61.7184,5665.25,4262.04,-4702.24,4262.04,5723.45,10,537,565,816,817,4015
17376.7,0.0178733,0.0100053,-0.00091242,0.000874453,-0.00091242,-0.00694742,0.0127773,0.000874453,0.0127773,-0.00141316,43665.5,-525.631,547.022,-525.631,33118.9,8369.31,547.022,8369.31,35810.3,10,504,569,848,849,4016
17514,0.0178938,0,0,0.000336898,0,0,0.0154313,0.000336898,0.0154313,-0.00238868,-92468.5,6.78457,219.201,6.78457,-92157.9,10040.3,219.201,10040.3,-94338.2,10,501,502,503,765,4017
28949.2,0.0295527,0.00790291,-0.0146242,0.0142306,-0.0146242,-0.0170173,0.00618781,0.0142306,0.00618781,0.00707467,-104369,-9759.01,10061.8,-9759.01,-118147,4371.31,10061.8,4371.31,-104263,10,536,770,796,799,4018
51172.3,0.0524688,0.0299247,0.0121216,-0.00103053,0.0121216,-0.0461286,-0.0145733,-0.00103053,-0.0145733,0.0197366,-5202.22,8312.96,-1100.37,8312.96,-55341.4,-6761.12,-1100.37,-6761.12,-10648.7,10,505,506,571,769,4019
8519.45,0.00874657,-6.48741e-07,0.00604546,-0.0043759,0.00604546,-0.00111998,0.000492613,-0.0043759,0.000492613,0.00127669,1368.83,3915.67,-2848.06,3915.67,523.127,356.319,-2848.06,356.319,2100.13,10,545,577,829,855,4020
348.318,0.000357301,0,0.000151962,0,0.000151962,-0.000466854,-2.11657e-06,0,-2.11657e-06,0,-15015.6,98.7147,-0.000418068,98.7147,-15319.1,-1.37493,-0.000418068,-1.37493,-15015.7,10,543,544,830,897,4021
0,0,0,0,0,0,0,0,0,0,0,0,0,0,0,0,0,0,0,0,10,511,759,760,775,4022
4867.93,0.00500078,0.000308681,-0.00410664,-0.00133776,-0.00410664,8.41721e-05,0.000287141,-0.00133776,0.000287141,5.51938e-05,13401.6,-2664.08,-869.616,-2664.08,13226.6,187.318,-869.616,187.318,13226.1,10,510,511,520,784,4023
0,0,0,0,0,0,0,0,0,0,0,0,0,0,0,0,0,0,0,0,10,495,511,759,760,4024
10992.8,0.0112884,0,0,-0.00724174,0,0,0.00656381,-0.00724174,0.00656381,0.000366869,5677.4,-61.7184,-4702.24,-61.7184,5665.25,4262.04,-4702.24,4262.04,5723.45,10,537,538,565,816,4025
7162.53,0.0073471,-0.00221106,-0.00406961,0.00355951,-0.00406961,0.00333494,0.00145449,0.00355951,0.00145449,-0.00152226,-16841.6,-2636.64,2313.08,-2636.64,-13264.7,969.943,2313.08,969.943,-16459.3,10,516,761,780,784,4026
32317.4,0.033442,0.0143286,0.0108459,-0.0122134,0.0108459,-0.019887,0.0143548,-0.0122134,0.0143548,0.0120431,162163,7376.78,-8280.37,7376.78,141222,9481.61,-8280.37,9481.61,160461,10,563,564,567,843,4027
9712.94,0.0100108,0.00055575,-0.00833984,-0.000960098,-0.00833984,-0.00116003,-0.000131856,-0.000960098,-0.000131856,0.003133,76796.4,-5384.89,-609.045,-5384.89,75507.1,-61.6968,-609.045,-61.6968,78383.2,10,509,521,785,788,4028
5061.86,0.00518381,-0.00134029,-0.00304778,0.00320699,-0.00304778,-0.000158325,4.67017e-05,0.00320699,4.67017e-05,7.91378e-05,-47805.7,-1985.94,2090.74,-1985.94,-47073.6,43.1229,2090.74,43.1229,-46920.6,10,496,511,520,760,4029
36615.8,0.0376806,0.0175699,-0.00884006,-0.00129184,-0.00884006,-0.00257665,-0.0276584,-0.00129184,-0.0276584,-0.0113658,57456.1,-5858.66,-1395.57,-5858.66,46496.9,-17540.3,-1395.57,-17540.3,37183.3,10,451,452,483,703,4030
8930.31,0.00917087,0.00121632,-0.00735115,-0.0027742,-0.00735115,-0.000975177,0.000376869,-0.0027742,0.000376869,8.85835e-05,7372.73,-4759.44,-1806.64,-4759.44,5813.38,243.657,-1806.64,243.657,6587.45,10,509,510,521,785,4031
4018.58,0.00412662,0,-0.00354853,0,-0.00354853,0.00019833,0.000408114,0,0.000408114,0,5565,-2304.15,-1.88039,-2304.15,5660.84,264.999,-1.88039,264.999,5548.86,10,510,774,775,784,4032
5247.25,0.00538235,-3.02447e-07,0.00319935,-0.00338723,0.00319935,-0.000216481,-3.71483e-05,-0.00338723,-3.71483e-05,-0.00023145,-15789.5,2079.44,-2200.44,2079.44,-15971.5,-10.0546,-2200.44,-10.0546,-15982.9,10,544,576,830,897,4033
5100.87,0.0052369,0,0,-0.00453469,0,0,5.38446e-05,-0.00453469,5.38446e-05,8.72097e-05,1498.9,-0.317102,-2944.74,-0.317102,1472.19,34.9656,-2944.74,34.9656,1502.11,10,542,812,813,855,4034
862.424,0.000884023,-0.000687703,0.000600201,-0.000170119,0.000600201,-0.000219365,0.000268317,-0.000170119,0.000268317,5.09043e-06,-29488.4,390.157,-110.908,390.157,-29183,174.567,-110.908,174.567,-29037.6,10,543,812,830,897,4035
7726.68,0.00791217,0,0.0067855,0,0.0067855,-0.00141596,-0.000490383,0,-0.000490383,0,-48525.3,4410.95,-4.33265,4410.95,-49567.4,-318.776,-4.33265,-318.776,-48585,10,546,577,828,829,4036
18476.6,0.0188083,0.00574781,0.00760637,-0.0034141,0.00760637,-0.0153594,0.0071964,-0.0034141,0.0071964,0.00508878,-159703,5313.19,-2741.28,5313.19,-172141,5410.18,-2741.28,5410.18,-160416,10,571,769,800,850,4037
7726.68,0.00791217,0,0.0067855,0,0.0067855,-0.00141596,-0.000490383,0,-0.000490383,0,-48525.3,4410.95,-4.33265,4410.95,-49567.4,-318.776,-4.33265,-318.776,-48585,10,545,546,577,829,4038
5661.09,0.00580636,-0.000194614,0.00331815,-0.00376707,0.00331815,1.02727e-06,-0.000247516,-0.00376707,-0.000247516,-0.000298808,-17566.6,2157.53,-2448.74,2157.53,-17479.8,-147.107,-2448.74,-147.107,-17676.8,10,576,830,855,897,4039
18762.1,0.0193063,0.00170841,0.012543,0.00150992,0.012543,-0.0102368,-0.00339891,0.00150992,-0.00339891,0.0105059,46453,8077.4,961.805,8077.4,38504.7,-2215.4,961.805,-2215.4,52039.2,10,552,618,834,890,4040
10091.6,0.0103438,0,0,-0.00888722,0,0,0.00103156,-0.00888722,0.00103156,-0.00077245,-29936.7,-11.9256,-5774.96,-11.9256,-30038.1,670.312,-5774.96,670.312,-30646,10,538,561,815,816,4041
9072.18,0.00935257,0.00374243,0.00334752,-0.00331574,0.00334752,0.00298438,0.00498188,-0.00331574,0.00498188,-0.00407437,83410.8,2131.4,-2069.2,2131.4,82838.1,3268.25,-2069.2,3268.25,78272.6,10,557,814,815,837,4042
6366.79,0.00654747,-0.000194558,0.00238619,-0.00443459,0.00238619,0.00311161,0.000710376,-0.00443459,0.000710376,-0.0018073,33491.1,1543.05,-2863.67,1543.05,35598.8,472.742,-2863.67,472.742,32356.6,10,572,813,814,851,4043
5082.41,0.00521448,0.000673248,-0.00380268,0.00227529,-0.00380268,5.41553e-05,6.54314e-05,0.00227529,6.54314e-05,-0.00103885,-10866.3,-2470.07,1471.75,-2470.07,-11309.4,59.0128,1471.75,59.0128,-12021.3,10,511,520,760,784,4044
25972.5,0.0266241,0.0118816,0.00184893,-0.00510013,0.00184893,-0.00409294,-0.0198611,-0.00510013,-0.0198611,-0.00758727,-20675.3,1217.22,-3369.11,1217.22,-30641,-12826.2,-3369.11,-12826.2,-33907.6,10,452,453,465,724,4045
10692.7,0.0110315,0.00578818,-0.00376668,0.0034733,-0.00376668,0.00195581,0.00612351,0.0034733,0.00612351,-0.00458662,99280.4,-2381.6,2131.32,-2381.6,96692.5,4012.26,2131.32,4012.26,92475.3,10,512,762,763,776,4046
8206.79,0.00842269,0.000135973,0.00307488,-0.00661003,0.00307488,-0.000297986,1.88333e-05,-0.00661003,1.88333e-05,0.000103999,-5158.45,1994.67,-4294.03,1994.67,-5511.87,35.3148,-4294.03,35.3148,-5291.15,10,572,576,813,855,4047
4527.13,0.00464806,0,0,0.00402317,0,0,0.000117241,0.00402317,0.000117241,0.000105447,2361.98,0.612545,2612.52,0.612545,2340.97,76.1327,2612.52,76.1327,2388.39,10,496,497,520,761,4048
9369.76,0.00963251,0.00619387,0.00482778,0.00340477,0.00482778,-0.00530631,0.00125947,0.00340477,0.00125947,0.000100449,31341.7,3033.94,2234.97,3033.94,23747.3,795.26,2234.97,795.26,27347.2,10,577,828,829,856,4049
8752.51,0.00895417,-0.00241268,0.00623856,-0.00415311,0.00623856,-0.00101266,0.00031259,-0.00415311,0.00031259,0.00147037,-68305.3,4066.01,-2719.17,4066.01,-67501.6,235.422,-2719.17,235.422,-65859.8,10,545,576,577,855,4050
4572.15,0.00469147,0,0,-0.00405845,0,0,0.000121973,-0.00405845,0.000121973,-0.000253877,-9209.22,-0.64324,-2636.06,-0.64324,-9230.6,79.2242,-2636.06,79.2242,-9416.99,10,541,542,576,813,4051
6493.6,0.00668052,0.000134398,0.00301089,-0.00480042,0.00301089,-0.000342152,0.000620493,-0.00480042,0.000620493,0.00155811,41347,1945.31,-3115.39,1945.31,40993.8,419.267,-3115.39,419.267,42207.8,10,572,576,577,855,4052
7378.71,0.00757162,0,0,-0.00654676,0,0,0.000356204,-0.00654676,0.000356204,-0.00017422,-8329.11,-3.03009,-4252.2,-3.03009,-8384.64,231.359,-4252.2,231.359,-8553.84,10,540,541,572,813,4053
10508.8,0.0107718,0,0,0.00919006,0,0,0.00154499,0.00919006,0.00154499,-0.000735281,-29173.4,18.4691,5971.65,18.4691,-29280.1,1003.93,5971.65,1003.93,-29874.4,10,500,526,763,764,4054
17021,0.017528,-0.00061889,-0.0101296,-0.00446808,-0.0101296,-0.00674422,-0.00623088,-0.00446808,-0.00623088,0.00969526,59539.8,-6542.06,-2866.13,-6542.06,55457.9,-4045.15,-2866.13,-4045.15,66164.2,10,491,721,755,756,4055
11414.8,0.0117159,0,0.00222658,0,0.00222658,8.69054e-05,-0.00989884,0,-0.00989884,0,-3863.37,1446.06,-28.632,1446.06,-3947.09,-6428.82,-28.632,-6428.82,-3742.52,10,590,591,606,822,4056
19623.7,0.0201199,0.00706438,0.00206794,-0.00169789,0.00206794,-0.0100228,-0.0147418,-0.00169789,-0.0147418,0.00281101,-20025.3,1390.78,-1079.06,1390.78,-31192.7,-9556.38,-1079.06,-9556.38,-22730.1,10,454,455,609,706,4057
8564.49,0.00877588,0,-0.00755556,0,-0.00755556,-0.00099891,0.000585705,0,0.000585705,0,-35792.8,-4910.23,-5.75831,-4910.23,-36591.7,380.64,-5.75831,380.64,-35866.7,10,509,773,774,785,4058
24110.9,0.0247476,-0.00572129,0.0160224,0.00688237,0.0160224,-0.0064017,-0.00588763,0.00688237,-0.00588763,0.0129492,-8590.81,10324.3,4769.5,10324.3,-6486.28,-3629.21,4769.5,-3629.21,4728.72,10,619,620,892,895,4059
7421.3,0.00760706,0.000878128,-0.00384535,0.00517667,-0.00384535,-0.000921601,0.000902376,0.00517667,0.000902376,-0.000780599,-28676.9,-2493.81,3356.58,-2493.81,-29922,613.776,3356.58,613.776,-29870.1,10,516,520,761,784,4060
8710.52,0.00894185,0,0,0.00759782,0,0,0.00149571,0.00759782,0.00149571,0.000101336,-548.639,14.7602,4934.09,14.7602,-620.711,971.328,4934.09,971.328,-635.691,10,498,499,512,762,4061
23609.2,0.0242687,0.00974363,0.0139069,0.00263893,0.0139069,-0.0172918,0.00151174,0.00263893,0.00151174,0.00922744,31101.1,9261.83,1638.85,9261.83,14071.4,1113.08,1638.85,1113.08,30998.6,10,560,834,835,840,4062
13460.9,0.0137609,0.00606847,0.00618799,-0.00481339,0.00618799,-0.00888639,0.00482956,-0.00481339,0.00482956,0.000584656,-76993.5,3880.65,-3061.97,3880.65,-87003.1,3230.54,-3061.97,3230.54,-80798.8,10,572,573,577,856,4063
8788.15,0.00903489,0.00557196,0.00566598,0.00124559,0.00566598,-0.00484103,0.000675092,0.00124559,0.000675092,0.000260223,31594.5,3580.61,839.164,3580.61,24659.4,440.663,839.164,440.663,28074.6,10,577,828,856,859,4064
5349.8,0.00551177,0.00243223,0.000136217,-0.00453564,0.000136217,-1.07002e-05,0.000129225,-0.00453564,0.000129225,-0.00022324,70741.3,87.868,-2928.54,87.868,69139.1,83.3079,-2928.54,83.3079,68980,10,542,576,813,855,4065
10952,0.0111864,-0.00431286,0.00725669,-0.00373827,0.00725669,-0.000709841,0.00408075,-0.00373827,0.00408075,0.00217441,-100569,4714.58,-2477.67,4714.58,-98236,2697.03,-2477.67,2697.03,-96411.9,10,573,574,852,857,4066
13097,0.0133571,0,-0.0113181,0,-0.0113181,-0.00367121,-0.00110397,0,-0.00110397,0,-126712,-7369.31,16.3353,-7369.31,-129448,-718.805,16.3353,-718.805,-126878,10,507,508,772,789,4067
15084.4,0.0154485,-0.00184962,0.0053029,-0.0103721,0.0053029,0.000657082,0.00644579,-0.0103721,0.00644579,0.000119153,-47305.3,3404.47,-6768.65,3404.47,-45780.7,4223.4,-6768.65,4223.4,-46278.5,10,558,573,837,852,4068
11414.8,0.0117159,0,0.00222658,0,0.00222658,8.69054e-05,-0.00989884,0,-0.00989884,0,-3863.37,1446.06,-28.632,1446.06,-3947.09,-6428.82,-28.632,-6428.82,-3742.52,10,590,606,822,823,4069
20773.4,0.0213484,0.00495737,0.0135226,0.0044264,0.0135226,-0.0127965,0.00186244,0.0044264,0.00186244,0.00916782,23696.7,8709.39,2867.48,8709.39,11981,1208.91,2867.48,1208.91,26322.8,10,575,833,834,854,4070
12923.3,0.0132605,0.00707754,0.00270016,-0.00209697,0.00270016,-0.00771457,-0.00807485,-0.00209697,-0.00807485,0.000609097,-4856.63,1685.98,-1407.07,1685.98,-14640.8,-5168.81,-1407.07,-5168.81,-8975.72,10,610,611,879,882,4071
11848.9,0.012104,0,0.00153022,0,0.00153022,-0.00274384,-0.0102483,0,-0.0102483,0,-95429.6,995.694,-20.4691,995.694,-97363.4,-6668.46,-20.4691,-6668.46,-95295.5,10,594,818,819,883,4072
11848.9,0.012104,0,0.00153022,0,0.00153022,-0.00274384,-0.0102483,0,-0.0102483,0,-95429.6,995.694,-20.4691,995.694,-97363.4,-6668.46,-20.4691,-6668.46,-95295.5,10,593,594,819,883,4073
10950.1,0.0112144,0,0.00287671,0,0.00287671,-0.00124794,-0.00924807,0,-0.00924807,0,-46242,1869.93,-34.6362,1869.93,-47187.2,-6011.46,-34.6362,-6011.46,-46141.4,10,593,819,820,882,4074
11195.2,0.011462,0,-0.00236607,0,-0.00236607,-0.00141392,-0.00960565,0,-0.00960565,0,-51861.1,-1538.18,29.5981,-1538.18,-52916.5,-6244.62,29.5981,-6244.62,-51748.2,10,460,461,482,713,4075
11892.7,0.0121674,0,0.00616038,0,0.00616038,-0.00181968,-0.00848412,0,-0.00848412,0,-65693.4,4006.01,-68.114,4006.01,-67071.9,-5517.1,-68.114,-5517.1,-65649.1,10,589,823,824,868,4076
12766.4,0.0130547,0,-0.00137368,0,-0.00137368,-0.00208616,-0.0111571,0,-0.0111571,0,-75412.7,-893.466,19.9838,-893.466,-76940,-7256.78,19.9838,-7256.78,-75252.9,10,458,459,711,745,4077
12506.3,0.012805,0,-0.000119378,0,-0.000119378,-0.001334,-0.011062,0,-0.011062,0,-50882.9,-77.6056,1.71967,-77.6056,-51910.9,-7191.25,1.71967,-7191.25,-50723.6,10,457,458,708,710,4078
12766.4,0.0130547,0,-0.00137368,0,-0.00137368,-0.00208616,-0.0111571,0,-0.0111571,0,-75412.7,-893.466,19.9838,-893.466,-76940,-7256.78,19.9838,-7256.78,-75252.9,10,458,710,711,745,4079
13953.9,0.0142996,0.00123081,0.00138927,-0.00217143,0.00138927,-0.00447883,-0.0115285,-0.00217143,-0.0115285,0.0024962,-33324.8,902.08,-1421.24,902.08,-37160.3,-7462.11,-1421.24,-7462.11,-32391.7,10,593,594,612,883,4080
10466.8,0.0107334,0.000123926,0.00307384,0.000292529,0.00307384,-0.000939272,-0.00874095,0.000292529,-0.00874095,0.000335595,-20934.5,1998.87,155.962,1998.87,-21749.4,-5674.35,155.962,-5674.35,-20707.7,10,592,610,820,882,4081
11168.3,0.0114128,0,-0.00619787,0,-0.00619787,-0.00255521,-0.00755638,0,-0.00755638,0,-88512.3,-4032.29,61.1071,-4032.29,-90354.1,-4916.13,61.1071,-4916.13,-88488,10,462,714,715,741,4082
11050.6,0.0113495,0.00138911,-0.00429213,-0.00189782,-0.00429213,-0.00199401,-0.0084319,-0.00189782,-0.0084319,0.00106717,9510.41,-2774.21,-1185.63,-2774.21,7183.38,-5470.2,-1185.63,-5470.2,9336.15,10,463,475,715,736,4083
10153.9,0.0103801,0,-0.00501481,0,-0.00501481,-0.00236211,-0.00733497,0,-0.00733497,0,-81212.1,-3262.11,47.976,-3262.11,-82888.3,-4771.36,47.976,-4771.36,-81174.7,10,463,464,716,736,4084
13327.1,0.0137202,0.00484924,-0.00957525,0.000872491,-0.00957525,-0.00565338,-0.0042157,0.000872491,-0.0042157,0.00278632,57710.8,-6165.95,594.309,-6165.95,50807.2,-2731.5,594.309,-2731.5,56348.9,10,440,441,718,730,4085
9788.13,0.0100115,0,0.00802441,0,0.00802441,-0.00205581,-0.00306141,0,-0.00306141,0,-70931,5218.73,-32.0239,5218.73,-72451.1,-1991.01,-32.0239,-1991.01,-71002.8,10,549,825,826,831,4086
4056.26,0.00416298,-0.000502844,0.00356477,-0.000270333,0.00356477,8.43752e-06,-0.000171959,-0.000270333,-0.000171959,0.000358317,-5528.82,2316.55,-175.7,2316.55,-5226.29,-112.301,-175.7,-112.301,-4983.96,10,545,576,830,855,4087
15686.3,0.0160696,0.0118449,0.00011325,-0.000281575,0.00011325,-0.0109881,-0.00785445,-0.000281575,-0.00785445,-0.00172892,-32962.5,-182.891,-288.119,-182.891,-47914.3,-5048.65,-288.119,-5048.65,-41694,10,602,869,870,874,4088
8593.32,0.00880041,0,0.00654214,0,0.00654214,-0.00133928,-0.00383249,0,-0.00383249,0,-46784.4,4252.59,-32.6435,4252.59,-47786.9,-2491.24,-32.6435,-2491.24,-46821,10,549,588,825,861,4089
25053,0.0257072,-0.000671805,0.0154185,-0.0106089,0.0154185,-0.00774951,0.00856364,-0.0106089,0.00856364,0.00915024,-9462.97,9882.72,-7076.23,9882.72,-14047,5784.69,-7076.23,5784.69,-3491.79,10,560,839,840,854,4090
28618.8,0.0293191,0.000607982,-0.0215455,-0.00356896,-0.0215455,-0.00964249,-0.00892227,-0.00356896,-0.00892227,0.00910836,-39907.3,-14057.5,-2395.47,-14057.5,-46192.1,-5817.87,-2395.47,-5817.87,-34228.5,10,444,490,491,755,4091
12506.3,0.012805,0,-0.000119378,0,-0.000119378,-0.001334,-0.011062,0,-0.011062,0,-50882.9,-77.6056,1.71967,-77.6056,-51910.9,-7191.25,1.71967,-7191.25,-50723.6,10,457,708,709,818,4092
12180.5,0.0124764,0,-0.00239571,0,-0.00239571,-0.00110865,-0.0105165,0,-0.0105165,0,-43218,-1557.17,32.7958,-1557.17,-44098.4,-6835.52,32.7958,-6835.52,-43081.5,10,459,460,712,746,4093
13335.4,0.0136837,0.00250491,0.00186772,-0.00130541,0.00186772,-0.00433158,-0.0110019,-0.00130541,-0.0110019,0.00183362,-7270.95,1224.38,-857.618,1224.38,-11821.1,-7114.93,-857.618,-7114.93,-7613.31,10,593,612,882,883,4094
17014.9,0.0174484,-0.000122841,-0.000794196,-0.000282611,-0.000794196,-0.00435514,-0.014455,-0.000282611,-0.014455,0.00428803,-20974.9,-510.633,-184.33,-510.633,-23841.7,-9362.26,-184.33,-9362.26,-17992.3,10,456,457,458,708,4095
12180.5,0.0124764,0,-0.00239571,0,-0.00239571,-0.00110865,-0.0105165,0,-0.0105165,0,-43218,-1557.17,32.7958,-1557.17,-44098.4,-6835.52,32.7958,-6835.52,-43081.5,10,459,711,712,746,4096
11195.2,0.011462,0,-0.00236607,0,-0.00236607,-0.00141392,-0.00960565,0,-0.00960565,0,-51861.1,-1538.18,29.5981,-1538.18,-52916.5,-6244.62,29.5981,-6244.62,-51748.2,10,460,482,712,713,4097
11227,0.0115383,0.00189767,0.00307186,0.00109734,0.00307186,-0.00161825,-0.00927642,0.00109734,-0.00927642,0.000583477,22486.2,1996.62,680.592,1996.62,20072.9,-6003.16,680.592,-6003.16,21743.4,10,593,819,882,883,4098
12506.3,0.012805,0,-0.000119378,0,-0.000119378,-0.001334,-0.011062,0,-0.011062,0,-50882.9,-77.6056,1.71967,-77.6056,-51910.9,-7191.25,1.71967,-7191.25,-50723.6,10,457,708,709,710,4099
9795.6,0.010024,0,-0.00680775,0,-0.00680775,-0.00176553,-0.00528916,0,-0.00528916,0,-61621,-4426.61,46.916,-4426.61,-62928.4,-3439.18,46.916,-3439.18,-61644.9,10,464,716,717,730,4100
12385.9,0.0127188,0.00759476,-0.00174929,0.00246051,-0.00174929,-0.00736594,-0.00750032,0.00246051,-0.00750032,0.000184384,10347.6,-1008.63,1661.3,-1008.63,499.476,-4806.63,1661.3,-4806.63,5591.08,10,475,715,735,741,4101
24815,0.0255741,-0.00163344,0.018062,0.00685531,0.018062,-0.00486981,-0.00758863,0.00685531,-0.00758863,0.00983534,73474.6,11692.7,4537.37,11692.7,71992.3,-4875.77,4537.37,-4875.77,81153.7,10,553,618,834,894,4102
23379.4,0.024065,0.00104711,-0.0169253,-0.0032801,-0.0169253,-0.00889793,-0.0066835,-0.0032801,-0.0066835,0.0103282,51476.7,-11041.4,-2213.19,-11041.4,45643.8,-4328.13,-2213.19,-4328.13,57749.9,10,444,721,755,758,4103
11260.5,0.0115648,0.00760914,0.00229559,0.00197567,0.00229559,-0.00843502,-0.00508192,0.00197567,-0.00508192,0.00127987,13035.3,1380.39,1235.17,1380.39,2491.18,-3249.71,1235.17,-3249.71,8963.46,10,602,606,870,874,4104
8593.32,0.00880041,0,0.00654214,0,0.00654214,-0.00133928,-0.00383249,0,-0.00383249,0,-46784.4,4252.59,-32.6435,4252.59,-47786.9,-2491.24,-32.6435,-2491.24,-46821,10,588,824,825,861,4105
11892.7,0.0121674,0,0.00616038,0,0.00616038,-0.00181968,-0.00848412,0,-0.00848412,0,-65693.4,4006.01,-68.114,4006.01,-67071.9,-5517.1,-68.114,-5517.1,-65649.1,10,588,589,824,868,4106
8856.92,0.00908044,-2.56438e-07,0.00758492,-0.00159725,0.00758492,-0.0014873,-0.000624459,-0.00159725,-0.000624459,0.00082059,-25378.6,4924.04,-1046.32,4924.04,-26499.1,-389.061,-1046.32,-389.061,-24925.7,10,546,577,580,828,4107
17061.7,0.0175765,0.0118552,0.00885325,-0.00105125,0.00885325,-0.012026,0.00264556,-0.00105125,0.00264556,0.00272888,74975.8,5503.03,-648.033,5503.03,59209.3,1760.88,-648.033,1760.88,68895.9,10,574,578,579,858,4108
10005.2,0.0102031,0,-0.00767478,0,-0.00767478,-0.00382812,-0.00378033,0,-0.00378033,0,-128225,-4997.28,37.9338,-4997.28,-130900,-2461.48,37.9338,-2461.48,-128284,10,440,717,718,771,4109
16638.7,0.0170829,0.00486806,-0.0137805,0.00236179,-0.0137805,-0.00422297,0.00162962,0.00236179,0.00162962,-0.000141906,5272.67,-8908.94,1552.33,-8908.94,-841.712,1061.1,1552.33,1061.1,1913.22,10,508,524,525,789,4110
10388.6,0.0106463,0,0.0030119,0,0.0030119,-0.000871111,-0.0086996,0,-0.0086996,0,-33510.7,1957.29,-34.0907,1957.29,-34199.5,-5653.45,-34.0907,-5653.45,-33424.1,10,591,592,610,821,4111
10288.8,0.0105771,0.0017695,-0.00536804,-0.00116915,-0.00536804,-0.00360142,-0.00646637,-0.00116915,-0.00646637,0.00283832,28080.4,-3459.2,-713.751,-3459.2,24463.7,-4178.56,-713.751,-4178.56,28770.3,10,464,470,475,736,4112
12358.4,0.0126691,-1.31754e-07,-0.0106724,0.000928931,-0.0106724,-0.0026399,0.000345718,0.000928931,0.000345718,0.00203666,-27083.5,-6919.55,610.849,-6919.55,-29097,241.434,610.849,241.434,-25909.9,10,508,772,788,789,4113
10005.2,0.0102031,0,-0.00767478,0,-0.00767478,-0.00382812,-0.00378033,0,-0.00378033,0,-128225,-4997.28,37.9338,-4997.28,-130900,-2461.48,37.9338,-2461.48,-128284,10,440,507,718,771,4114
16632.5,0.0170759,0.00607998,0.00898624,0.00504166,0.00898624,-0.00799927,-0.00769404,0.00504166,-0.00769404,0.00240115,5080.28,5821.59,3404.51,5821.59,-3706.16,-5131.1,3404.51,-5131.1,2506.75,10,600,866,867,888,4115
10354.5,0.0106346,0.0024876,-0.00505434,0.00144192,-0.00505434,-0.00215625,-0.00719739,0.00144192,-0.00719739,0.000107195,10260.2,-3262.08,985.978,-3262.08,7095.99,-4649.79,985.978,-4649.79,8746.4,10,462,475,715,741,4116
9937,0.0101686,0,-0.00451181,0,-0.00451181,-0.00176211,-0.00749397,0,-0.00749397,0,-61687.4,-2933.72,44.0548,-2933.72,-62961.6,-4872.81,44.0548,-4872.81,-61640.7,10,462,463,475,715,4117
10662.8,0.0109099,0,-0.00512853,0,-0.00512853,-0.00181524,-0.00786572,0,-0.00786572,0,-64151.3,-3334.9,52.5676,-3334.9,-65483.2,-5114.8,52.5676,-5114.8,-64104.9,10,461,479,713,714,4118
12299.1,0.0126308,0.00143953,-0.00248798,-0.000749139,-0.00248798,-0.00135045,-0.0105319,-0.000749139,-0.0105319,0.000373623,8046.44,-1617.87,-456.642,-1617.87,6075.93,-6823.7,-456.642,-6823.7,7496.9,10,459,711,745,746,4119
12353.8,0.012647,0.00153462,-0.00652299,-0.00220599,-0.00652299,-0.00583876,-0.00710777,-0.00220599,-0.00710777,0.00287735,-52709.3,-4255.99,-1377.02,-4255.99,-57652.4,-4562.89,-1377.02,-4562.89,-51745.6,10,461,479,713,740,4120
18920.8,0.0194662,0.0120725,0.0063782,-0.00109248,0.0063782,-0.0123061,-0.00959633,-0.00109248,-0.00959633,0.00211247,49667.8,4106.53,-760.976,4106.53,33777.2,-6157.27,-760.976,-6157.27,43319.6,10,604,605,608,877,4121
11709.3,0.0119499,0,0.00479938,0,0.00479938,-0.00332434,-0.00896558,0,-0.00896558,0,-113926,3124.09,-56.2175,3124.09,-116263,-5836.02,-56.2175,-5836.02,-113852,10,591,821,822,875,4122
35004.2,0.0357989,-0.00197319,0.0281658,0.000741239,0.0281658,-0.00979446,-0.00719627,0.000741239,-0.00719627,0.0114566,-75687.4,18455.6,763.951,18455.6,-78985.3,-4790.38,763.951,-4790.38,-66169,10,553,619,622,894,4123
33451.5,0.034392,0.0253988,-0.000768109,-0.00207322,-0.000768109,-0.0316446,0.0044988,-0.00207322,0.0044988,0.0089387,44785.5,-464.495,-1302.94,-464.495,7702.54,2525.62,-1302.94,2525.62,34166.5,10,805,806,810,898,4124
25468.7,0.0260542,0.00996593,-0.0089542,-0.00273376,-0.0089542,-0.0236603,-0.00351835,-0.00273376,-0.00351835,0.0126263,-61082.1,-5062.27,-1726.8,-5062.27,-83698.1,-2487.71,-1726.8,-2487.71,-59715.3,10,801,806,898,903,4125
30117.4,0.0306953,0.0158112,0.0024483,0.00206712,0.0024483,-0.0304478,0.00634407,0.00206712,0.00634407,0.0117471,-129485,1471.38,1385.73,1471.38,-159889,3728.57,1385.73,3728.57,-132047,10,805,809,810,898,4126
15911.9,0.0163598,0.00284954,0.00664501,-0.00214621,0.00664501,-0.0123315,-0.00372308,-0.00214621,-0.00372308,0.0107986,31415,3966.87,-1477.63,3966.87,20991.3,-2456.37,-1477.63,-2456.37,36195,10,698,805,899,902,4127
33343.8,0.0336947,0.0127322,-0.0137866,0.0043627,-0.0137866,-0.031732,-0.00193149,0.0043627,-0.00193149,0.0113136,-296354,-9442.46,2823.57,-9442.46,-325249,-1428.15,2823.57,-1428.15,-297086,10,698,805,809,899,4128
35573.4,0.0358668,0.0249925,0.00416606,0.00298263,0.00416606,-0.0351129,0.00468072,0.00298263,0.00468072,0.00130196,-331582,2405.8,2094.81,2405.8,-371589,2177.23,2094.81,2177.23,-347081,10,702,807,808,901,4129
22141.7,0.0224509,0.00881554,0.0092494,-0.000763676,0.0092494,-0.0215485,-0.00310322,-0.000763676,-0.00310322,0.00609629,-232572,5215.99,-487.745,5215.99,-253377,-2474.94,-487.745,-2474.94,-234920,10,699,700,807,902,4130
22589.6,0.0230973,-0.0035134,0.0176492,-0.00383981,0.0176492,0.00311433,0.00790954,-0.00383981,0.00790954,-0.00120295,-79040.5,11675.8,-1921.5,11675.8,-76745.4,5362.59,-1921.5,5362.59,-78031.7,10,807,900,901,902,4131
18050.4,0.0186196,-0.000424194,-0.0158696,-0.00155335,-0.0158696,0.00378779,0.000651406,-0.00155335,0.000651406,3.93314e-05,92851.4,-10285.2,-1295.74,-10285.2,94387.4,450.528,-1295.74,450.528,92595.2,10,808,900,901,903,4132
23269.1,0.0238926,-0.00464658,0.0124777,-0.00342334,0.0124777,-0.0125195,-0.00265538,-0.00342334,-0.00265538,0.0181481,1202.22,7952.53,-2164.93,7952.53,-4892.85,-1947.23,-2164.93,-1947.23,15429.7,10,805,807,900,902,4133
15762.7,0.016337,0.00474656,0.0129498,0.000938855,0.0129498,0.00482969,0.00300069,0.000938855,0.00300069,-0.00344393,187685,8275.59,1005.1,8275.59,186310,2080.63,1005.1,2080.63,181941,10,701,807,901,902,4134
28552.5,0.0294413,0.0127921,-0.016392,0.00457903,-0.016392,-0.0153222,0.011947,0.00457903,0.011947,0.00649857,92755.9,-10812.8,3209.22,-10812.8,75387.3,7853.73,3209.22,7853.73,88794.4,10,698,770,809,899,4135
40520.6,0.0417124,0.0249925,-0.00250361,0.000421376,-0.00250361,-0.0390439,-0.00763079,0.000421376,-0.00763079,0.0183772,68570.7,-1623.44,269.747,-1623.44,27195,-5279.1,269.747,-5279.1,64199.5,10,805,807,808,900,4136
29166.6,0.0296882,0.0025742,0.0135598,-0.00259735,0.0135598,-0.024525,-0.00178125,-0.00259735,-0.00178125,0.0181963,-162150,8133.29,-1628.73,8133.29,-181287,-1538.86,-1628.73,-1538.86,-152679,10,699,805,807,902,4137
19986.7,0.0204318,0.00340537,0.00802355,-0.00373813,0.00802355,-0.011133,-0.0122713,-0.00373813,-0.0122713,0.00582916,-78829.5,4890.15,-2744.29,4890.15,-89101.1,-7877.51,-2744.29,-7877.51,-77653.4,10,698,699,805,902,4138
33706,0.0343193,0.0177884,0.0045946,0.00222883,0.0045946,-0.0341172,-0.00559035,0.00222883,-0.00559035,0.0132238,-147017,2797.32,1446.9,2797.32,-181059,-3704.83,1446.9,-3704.83,-150039,10,805,898,899,900,4139
32293.3,0.0329121,0.00652696,-0.0156408,-0.000721037,-0.0156408,-0.0267754,-0.00587284,-0.000721037,-0.00587284,0.0175616,-135378,-9358.31,-406.385,-9358.31,-158604,-4107.08,-406.385,-4107.08,-128978,10,802,806,808,903,4140
36680.9,0.0380934,0.0202973,0.0155133,-0.00399459,0.0155133,-0.0166013,0.0220677,-0.00399459,0.0220677,0.00546151,234935,10300.1,-2819.66,10300.1,211930,14162.5,-2819.66,14162.5,225602,10,800,801,810,898,4141
19686.4,0.0202905,0.0177884,-0.00269948,0.00291434,-0.00269948,-0.0128806,0.00717879,0.00291434,0.00717879,-0.00189912,88185.3,-1714.6,1925.2,-1714.6,68469,4731.24,1925.2,4731.24,75341.4,10,769,809,898,899,4142
33786.9,0.0349505,0.0174041,-0.0236585,0.00441047,-0.0236585,-0.0140894,-0.00939853,0.00441047,-0.00939853,0.00308974,159227,-14198.8,2905.9,-14198.8,136246,-6189.06,2905.9,-6189.06,148343,10,803,804,808,903,4143
25577.9,0.0262447,0.0158112,0.00189564,0.00109836,0.00189564,-0.0146694,0.0167096,0.00109836,0.0167096,-0.000395,314.191,1176.87,737.889,1176.87,-19441.3,10881.2,737.889,10881.2,-10291.1,10,769,809,810,898,4144
26637.4,0.0270382,0.0135933,-0.0107497,-0.00285706,-0.0107497,-0.0233905,-0.00744058,-0.00285706,-0.00744058,0.0041454,-208840,-6021.4,-1709.1,-6021.4,-234021,-5310.11,-1709.1,-5310.11,-215787,10,802,803,808,903,4145
20740.4,0.0214147,0.010583,0.0161577,-0.00324365,0.0161577,-0.00536159,-0.00205904,-0.00324365,-0.00205904,-0.0010843,118556,9973.44,-1849.3,9973.44,106471,-1381.68,-1849.3,-1381.68,110015,10,700,701,807,902,4146
41532.7,0.0425558,0.0253988,-0.00127689,0.000282834,-0.00127689,-0.0412205,-0.00568042,0.000282834,-0.00568042,0.0174702,-20849.6,-768.834,195.695,-768.834,-64140.2,-3983.69,195.695,-3983.69,-26066,10,805,806,808,900,4147
33356.8,0.0341638,0.014116,0.0148128,0.0020562,0.0148128,-0.0142217,0.0212338,0.0020562,0.0212338,0.000477479,-36444.3,9823.56,1132.2,9823.56,-54295.5,13908.3,1132.2,13908.3,-45338.8,10,769,800,810,898,4148
36363.6,0.0367574,0.0192766,0.0111111,-0.00687223,0.0111111,-0.0344827,0.00622064,-0.00687223,0.00622064,0.00802707,-286293,7826.81,-4469.71,7826.81,-321487,3658.81,-4469.71,3658.81,-293427,10,801,806,810,898,4149
16562.4,0.017057,-0.00258799,0.00861598,-0.00329039,0.00861598,-0.0068833,-0.00609693,-0.00329039,-0.00609693,0.0118197,60028.1,5514.25,-2239.85,5514.25,56618.1,-3954.77,-2239.85,-3954.77,68925,10,805,899,900,902,4150
25760.8,0.0262905,0.00806411,-0.0058242,0.00219775,-0.0058242,-0.013677,-0.0187002,0.00219775,-0.0187002,0.00313721,-108259,-3406.58,1819.63,-3406.58,-123162,-12030.7,1819.63,-12030.7,-111457,10,801,802,806,903,4151
24304.5,0.0249008,0.010975,-0.0141176,-0.000420898,-0.0141176,-0.0124864,0.011252,-0.000420898,0.011252,0.00124906,-31858.5,-9324.31,-61.3596,-9324.31,-46470.1,7502.75,-61.3596,7502.75,-38231.5,10,769,770,809,899,4152
29176.6,0.0298943,0.0177884,-0.00198719,0.00416291,-0.00198719,-0.0288915,-0.00308837,0.00416291,-0.00308837,0.0113021,-26161.9,-1302.64,2704.14,-1302.64,-56509.7,-2152.88,2704.14,-2152.88,-30399.5,10,805,809,898,899,4153
15897,0.0164857,0.00223564,-0.0135147,-0.00316322,-0.0135147,0.00474579,-0.00207701,-0.00316322,-0.00207701,-0.00049305,197049,-8655.44,-2251.36,-8655.44,197694,-1317.35,-2251.36,-1317.35,194681,10,804,808,901,903,4154
38595.4,0.0396001,0.0253988,-0.00253561,-0.00155383,-0.00253561,-0.0379515,-0.00426693,-0.00155383,-0.00426693,0.014635,5533.8,-1529.65,-979.191,-1529.65,-35629.4,-2919.48,-979.191,-2919.48,-1507.77,10,805,806,898,900,4155
16778.7,0.0173003,0.0144947,0.00348642,-0.00304161,0.00348642,-0.00959781,0.00720234,-0.00304161,0.00720234,-0.0018234,93646.1,1981,-1778.48,1981,77453.8,4439.98,-1778.48,4439.98,83433.4,10,701,702,807,901,4156
29152.1,0.0298371,0.0249925,-0.00054718,-0.000591092,-0.00054718,-0.0245781,0.00723417,-0.000591092,0.00723417,-0.000882458,-42180.1,-437.039,-319.575,-437.039,-74749.4,4215.35,-319.575,4215.35,-58756.2,10,807,808,900,901,4157
26101.5,0.0268394,0.0221848,0.00654295,0.0032771,0.00654295,-0.0216291,0.00250946,0.0032771,0.00250946,0.00150946,45785,4155.53,2285.21,4155.53,17274.1,1041.34,2285.21,1041.34,32482.1,10,702,804,808,901,4158
24017.6,0.0246366,0.00157177,-0.0111354,0.00131654,-0.0111354,-0.0165528,-0.00850503,0.00131654,-0.00850503,0.0154244,-14091.2,-6921.95,973.07,-6921.95,-26569.3,-5606.22,973.07,-5606.22,-5524.98,10,806,898,900,903,4159
26118.6,0.0267766,-0.00052794,-0.014066,0.000160505,-0.014066,-0.016708,-0.00684612,0.000160505,-0.00684612,0.0175093,-26271.2,-8814.2,156.148,-8814.2,-37791,-4619.37,156.148,-4619.37,-15134.5,10,806,808,900,903,4160
